*SPEF "ieee 1481-1999"
*DESIGN "heichips26_example_tiny"
*DATE "09:30:55 Monday July 20, 2026"
*VENDOR "The OpenROAD Project"
*PROGRAM "OpenROAD"
*VERSION "dcf36133a369abc8f3c5e5738cd4d82e4903c0e0"
*DESIGN_FLOW "NAME_SCOPE LOCAL" "PIN_CAP NONE"
*DIVIDER /
*DELIMITER :
*BUS_DELIMITER []
*T_UNIT 1 NS
*C_UNIT 1 PF
*R_UNIT 1 OHM
*L_UNIT 1 HENRY

*NAME_MAP
*3 clk
*4 ena
*5 rst_n
*6 ui_in[0]
*7 ui_in[1]
*8 ui_in[2]
*9 ui_in[3]
*10 ui_in[4]
*11 ui_in[5]
*12 ui_in[6]
*13 ui_in[7]
*14 uio_in[0]
*15 uio_in[1]
*16 uio_in[2]
*17 uio_in[3]
*18 uio_in[4]
*19 uio_in[5]
*20 uio_in[6]
*21 uio_in[7]
*22 net
*23 net25
*24 net26
*25 net27
*26 net28
*27 net29
*28 net30
*29 net31
*30 net32
*31 net33
*32 net34
*33 net35
*34 net36
*35 net37
*36 net38
*37 net39
*38 uo_out[0]
*39 uo_out[1]
*40 uo_out[2]
*41 uo_out[3]
*42 uo_out[4]
*43 uo_out[5]
*44 uo_out[6]
*45 uo_out[7]
*46 _00_
*47 _01_
*48 _02_
*49 _03_
*50 _04_
*51 _05_
*52 _06_
*53 _07_
*54 _08_
*55 _09_
*56 _10_
*57 _11_
*58 _12_
*59 _13_
*60 _14_
*61 _15_
*62 _16_
*63 _17_
*64 _18_
*65 _19_
*66 _20_
*67 _21_
*68 _22_
*69 _23_
*70 _24_
*71 _25_
*72 _26_
*73 _27_
*74 _28_
*75 net1
*76 net10
*77 net11
*78 net12
*79 net13
*80 net14
*81 net15
*82 net16
*83 net17
*84 net18
*85 net19
*86 net2
*87 net20
*88 net21
*89 net22
*90 net23
*91 net24
*92 net3
*93 net4
*94 net5
*95 net6
*96 net7
*97 net8
*98 net9
*99 FILLER_0_0
*100 FILLER_0_105
*101 FILLER_0_112
*102 FILLER_0_119
*103 FILLER_0_126
*104 FILLER_0_133
*105 FILLER_0_14
*106 FILLER_0_140
*107 FILLER_0_147
*108 FILLER_0_154
*109 FILLER_0_161
*110 FILLER_0_168
*111 FILLER_0_175
*112 FILLER_0_182
*113 FILLER_0_189
*114 FILLER_0_196
*115 FILLER_0_203
*116 FILLER_0_21
*117 FILLER_0_210
*118 FILLER_0_217
*119 FILLER_0_224
*120 FILLER_0_231
*121 FILLER_0_238
*122 FILLER_0_245
*123 FILLER_0_252
*124 FILLER_0_259
*125 FILLER_0_266
*126 FILLER_0_273
*127 FILLER_0_28
*128 FILLER_0_280
*129 FILLER_0_287
*130 FILLER_0_294
*131 FILLER_0_301
*132 FILLER_0_308
*133 FILLER_0_315
*134 FILLER_0_322
*135 FILLER_0_329
*136 FILLER_0_336
*137 FILLER_0_343
*138 FILLER_0_35
*139 FILLER_0_350
*140 FILLER_0_357
*141 FILLER_0_364
*142 FILLER_0_371
*143 FILLER_0_378
*144 FILLER_0_385
*145 FILLER_0_392
*146 FILLER_0_399
*147 FILLER_0_403
*148 FILLER_0_42
*149 FILLER_0_49
*150 FILLER_0_56
*151 FILLER_0_63
*152 FILLER_0_7
*153 FILLER_0_70
*154 FILLER_0_77
*155 FILLER_0_84
*156 FILLER_0_91
*157 FILLER_0_98
*158 FILLER_10_102
*159 FILLER_10_109
*160 FILLER_10_11
*161 FILLER_10_116
*162 FILLER_10_123
*163 FILLER_10_130
*164 FILLER_10_137
*165 FILLER_10_144
*166 FILLER_10_151
*167 FILLER_10_158
*168 FILLER_10_165
*169 FILLER_10_172
*170 FILLER_10_179
*171 FILLER_10_18
*172 FILLER_10_186
*173 FILLER_10_193
*174 FILLER_10_200
*175 FILLER_10_207
*176 FILLER_10_214
*177 FILLER_10_221
*178 FILLER_10_228
*179 FILLER_10_235
*180 FILLER_10_242
*181 FILLER_10_249
*182 FILLER_10_25
*183 FILLER_10_256
*184 FILLER_10_263
*185 FILLER_10_270
*186 FILLER_10_277
*187 FILLER_10_284
*188 FILLER_10_291
*189 FILLER_10_298
*190 FILLER_10_305
*191 FILLER_10_312
*192 FILLER_10_319
*193 FILLER_10_32
*194 FILLER_10_326
*195 FILLER_10_333
*196 FILLER_10_340
*197 FILLER_10_347
*198 FILLER_10_354
*199 FILLER_10_361
*200 FILLER_10_368
*201 FILLER_10_375
*202 FILLER_10_382
*203 FILLER_10_389
*204 FILLER_10_39
*205 FILLER_10_396
*206 FILLER_10_4
*207 FILLER_10_403
*208 FILLER_10_46
*209 FILLER_10_53
*210 FILLER_10_60
*211 FILLER_10_67
*212 FILLER_10_74
*213 FILLER_10_81
*214 FILLER_10_88
*215 FILLER_10_95
*216 FILLER_11_102
*217 FILLER_11_109
*218 FILLER_11_11
*219 FILLER_11_116
*220 FILLER_11_123
*221 FILLER_11_130
*222 FILLER_11_137
*223 FILLER_11_144
*224 FILLER_11_151
*225 FILLER_11_158
*226 FILLER_11_165
*227 FILLER_11_172
*228 FILLER_11_179
*229 FILLER_11_18
*230 FILLER_11_186
*231 FILLER_11_193
*232 FILLER_11_200
*233 FILLER_11_207
*234 FILLER_11_214
*235 FILLER_11_221
*236 FILLER_11_228
*237 FILLER_11_235
*238 FILLER_11_242
*239 FILLER_11_249
*240 FILLER_11_25
*241 FILLER_11_256
*242 FILLER_11_263
*243 FILLER_11_270
*244 FILLER_11_277
*245 FILLER_11_284
*246 FILLER_11_291
*247 FILLER_11_298
*248 FILLER_11_305
*249 FILLER_11_312
*250 FILLER_11_319
*251 FILLER_11_32
*252 FILLER_11_326
*253 FILLER_11_333
*254 FILLER_11_340
*255 FILLER_11_347
*256 FILLER_11_354
*257 FILLER_11_361
*258 FILLER_11_368
*259 FILLER_11_375
*260 FILLER_11_382
*261 FILLER_11_389
*262 FILLER_11_39
*263 FILLER_11_396
*264 FILLER_11_4
*265 FILLER_11_403
*266 FILLER_11_46
*267 FILLER_11_53
*268 FILLER_11_60
*269 FILLER_11_67
*270 FILLER_11_74
*271 FILLER_11_81
*272 FILLER_11_88
*273 FILLER_11_95
*274 FILLER_12_102
*275 FILLER_12_109
*276 FILLER_12_11
*277 FILLER_12_116
*278 FILLER_12_123
*279 FILLER_12_130
*280 FILLER_12_137
*281 FILLER_12_144
*282 FILLER_12_151
*283 FILLER_12_158
*284 FILLER_12_165
*285 FILLER_12_172
*286 FILLER_12_179
*287 FILLER_12_18
*288 FILLER_12_186
*289 FILLER_12_193
*290 FILLER_12_200
*291 FILLER_12_207
*292 FILLER_12_214
*293 FILLER_12_221
*294 FILLER_12_228
*295 FILLER_12_235
*296 FILLER_12_242
*297 FILLER_12_249
*298 FILLER_12_25
*299 FILLER_12_256
*300 FILLER_12_263
*301 FILLER_12_270
*302 FILLER_12_277
*303 FILLER_12_284
*304 FILLER_12_291
*305 FILLER_12_298
*306 FILLER_12_305
*307 FILLER_12_312
*308 FILLER_12_319
*309 FILLER_12_32
*310 FILLER_12_326
*311 FILLER_12_333
*312 FILLER_12_340
*313 FILLER_12_347
*314 FILLER_12_354
*315 FILLER_12_361
*316 FILLER_12_368
*317 FILLER_12_375
*318 FILLER_12_382
*319 FILLER_12_389
*320 FILLER_12_39
*321 FILLER_12_396
*322 FILLER_12_4
*323 FILLER_12_403
*324 FILLER_12_46
*325 FILLER_12_53
*326 FILLER_12_60
*327 FILLER_12_67
*328 FILLER_12_74
*329 FILLER_12_81
*330 FILLER_12_88
*331 FILLER_12_95
*332 FILLER_13_102
*333 FILLER_13_109
*334 FILLER_13_11
*335 FILLER_13_116
*336 FILLER_13_123
*337 FILLER_13_130
*338 FILLER_13_137
*339 FILLER_13_144
*340 FILLER_13_151
*341 FILLER_13_158
*342 FILLER_13_165
*343 FILLER_13_172
*344 FILLER_13_179
*345 FILLER_13_18
*346 FILLER_13_186
*347 FILLER_13_193
*348 FILLER_13_200
*349 FILLER_13_207
*350 FILLER_13_214
*351 FILLER_13_221
*352 FILLER_13_228
*353 FILLER_13_235
*354 FILLER_13_242
*355 FILLER_13_249
*356 FILLER_13_25
*357 FILLER_13_256
*358 FILLER_13_263
*359 FILLER_13_270
*360 FILLER_13_277
*361 FILLER_13_284
*362 FILLER_13_291
*363 FILLER_13_298
*364 FILLER_13_305
*365 FILLER_13_312
*366 FILLER_13_319
*367 FILLER_13_32
*368 FILLER_13_326
*369 FILLER_13_333
*370 FILLER_13_340
*371 FILLER_13_347
*372 FILLER_13_354
*373 FILLER_13_361
*374 FILLER_13_368
*375 FILLER_13_375
*376 FILLER_13_382
*377 FILLER_13_389
*378 FILLER_13_39
*379 FILLER_13_396
*380 FILLER_13_4
*381 FILLER_13_403
*382 FILLER_13_46
*383 FILLER_13_53
*384 FILLER_13_60
*385 FILLER_13_67
*386 FILLER_13_74
*387 FILLER_13_81
*388 FILLER_13_88
*389 FILLER_13_95
*390 FILLER_14_102
*391 FILLER_14_109
*392 FILLER_14_11
*393 FILLER_14_116
*394 FILLER_14_123
*395 FILLER_14_130
*396 FILLER_14_137
*397 FILLER_14_144
*398 FILLER_14_151
*399 FILLER_14_158
*400 FILLER_14_165
*401 FILLER_14_172
*402 FILLER_14_179
*403 FILLER_14_18
*404 FILLER_14_186
*405 FILLER_14_193
*406 FILLER_14_200
*407 FILLER_14_207
*408 FILLER_14_214
*409 FILLER_14_221
*410 FILLER_14_228
*411 FILLER_14_235
*412 FILLER_14_242
*413 FILLER_14_249
*414 FILLER_14_25
*415 FILLER_14_256
*416 FILLER_14_263
*417 FILLER_14_270
*418 FILLER_14_277
*419 FILLER_14_284
*420 FILLER_14_291
*421 FILLER_14_298
*422 FILLER_14_305
*423 FILLER_14_312
*424 FILLER_14_319
*425 FILLER_14_32
*426 FILLER_14_326
*427 FILLER_14_333
*428 FILLER_14_340
*429 FILLER_14_347
*430 FILLER_14_354
*431 FILLER_14_361
*432 FILLER_14_368
*433 FILLER_14_375
*434 FILLER_14_382
*435 FILLER_14_389
*436 FILLER_14_39
*437 FILLER_14_396
*438 FILLER_14_4
*439 FILLER_14_403
*440 FILLER_14_46
*441 FILLER_14_53
*442 FILLER_14_60
*443 FILLER_14_67
*444 FILLER_14_74
*445 FILLER_14_81
*446 FILLER_14_88
*447 FILLER_14_95
*448 FILLER_15_102
*449 FILLER_15_109
*450 FILLER_15_11
*451 FILLER_15_116
*452 FILLER_15_123
*453 FILLER_15_130
*454 FILLER_15_137
*455 FILLER_15_144
*456 FILLER_15_151
*457 FILLER_15_158
*458 FILLER_15_165
*459 FILLER_15_172
*460 FILLER_15_179
*461 FILLER_15_18
*462 FILLER_15_186
*463 FILLER_15_193
*464 FILLER_15_200
*465 FILLER_15_207
*466 FILLER_15_214
*467 FILLER_15_221
*468 FILLER_15_228
*469 FILLER_15_235
*470 FILLER_15_242
*471 FILLER_15_249
*472 FILLER_15_25
*473 FILLER_15_256
*474 FILLER_15_263
*475 FILLER_15_270
*476 FILLER_15_277
*477 FILLER_15_284
*478 FILLER_15_291
*479 FILLER_15_298
*480 FILLER_15_305
*481 FILLER_15_312
*482 FILLER_15_319
*483 FILLER_15_32
*484 FILLER_15_326
*485 FILLER_15_333
*486 FILLER_15_340
*487 FILLER_15_347
*488 FILLER_15_354
*489 FILLER_15_361
*490 FILLER_15_368
*491 FILLER_15_375
*492 FILLER_15_382
*493 FILLER_15_389
*494 FILLER_15_39
*495 FILLER_15_396
*496 FILLER_15_4
*497 FILLER_15_403
*498 FILLER_15_46
*499 FILLER_15_53
*500 FILLER_15_60
*501 FILLER_15_67
*502 FILLER_15_74
*503 FILLER_15_81
*504 FILLER_15_88
*505 FILLER_15_95
*506 FILLER_16_102
*507 FILLER_16_109
*508 FILLER_16_11
*509 FILLER_16_116
*510 FILLER_16_123
*511 FILLER_16_130
*512 FILLER_16_137
*513 FILLER_16_144
*514 FILLER_16_151
*515 FILLER_16_158
*516 FILLER_16_165
*517 FILLER_16_172
*518 FILLER_16_179
*519 FILLER_16_18
*520 FILLER_16_186
*521 FILLER_16_193
*522 FILLER_16_200
*523 FILLER_16_207
*524 FILLER_16_214
*525 FILLER_16_221
*526 FILLER_16_228
*527 FILLER_16_235
*528 FILLER_16_242
*529 FILLER_16_249
*530 FILLER_16_25
*531 FILLER_16_256
*532 FILLER_16_263
*533 FILLER_16_270
*534 FILLER_16_277
*535 FILLER_16_284
*536 FILLER_16_291
*537 FILLER_16_298
*538 FILLER_16_305
*539 FILLER_16_312
*540 FILLER_16_319
*541 FILLER_16_32
*542 FILLER_16_326
*543 FILLER_16_333
*544 FILLER_16_340
*545 FILLER_16_347
*546 FILLER_16_354
*547 FILLER_16_361
*548 FILLER_16_368
*549 FILLER_16_375
*550 FILLER_16_382
*551 FILLER_16_389
*552 FILLER_16_39
*553 FILLER_16_396
*554 FILLER_16_4
*555 FILLER_16_403
*556 FILLER_16_46
*557 FILLER_16_53
*558 FILLER_16_60
*559 FILLER_16_67
*560 FILLER_16_74
*561 FILLER_16_81
*562 FILLER_16_88
*563 FILLER_16_95
*564 FILLER_17_0
*565 FILLER_17_105
*566 FILLER_17_112
*567 FILLER_17_119
*568 FILLER_17_126
*569 FILLER_17_133
*570 FILLER_17_14
*571 FILLER_17_140
*572 FILLER_17_147
*573 FILLER_17_154
*574 FILLER_17_161
*575 FILLER_17_168
*576 FILLER_17_175
*577 FILLER_17_182
*578 FILLER_17_189
*579 FILLER_17_196
*580 FILLER_17_203
*581 FILLER_17_21
*582 FILLER_17_210
*583 FILLER_17_217
*584 FILLER_17_224
*585 FILLER_17_231
*586 FILLER_17_238
*587 FILLER_17_245
*588 FILLER_17_252
*589 FILLER_17_259
*590 FILLER_17_266
*591 FILLER_17_273
*592 FILLER_17_28
*593 FILLER_17_280
*594 FILLER_17_287
*595 FILLER_17_294
*596 FILLER_17_301
*597 FILLER_17_308
*598 FILLER_17_315
*599 FILLER_17_322
*600 FILLER_17_329
*601 FILLER_17_336
*602 FILLER_17_343
*603 FILLER_17_35
*604 FILLER_17_350
*605 FILLER_17_357
*606 FILLER_17_364
*607 FILLER_17_371
*608 FILLER_17_378
*609 FILLER_17_385
*610 FILLER_17_392
*611 FILLER_17_399
*612 FILLER_17_403
*613 FILLER_17_42
*614 FILLER_17_49
*615 FILLER_17_56
*616 FILLER_17_63
*617 FILLER_17_7
*618 FILLER_17_70
*619 FILLER_17_77
*620 FILLER_17_84
*621 FILLER_17_91
*622 FILLER_17_98
*623 FILLER_18_102
*624 FILLER_18_109
*625 FILLER_18_11
*626 FILLER_18_116
*627 FILLER_18_123
*628 FILLER_18_130
*629 FILLER_18_137
*630 FILLER_18_144
*631 FILLER_18_151
*632 FILLER_18_158
*633 FILLER_18_165
*634 FILLER_18_172
*635 FILLER_18_179
*636 FILLER_18_18
*637 FILLER_18_186
*638 FILLER_18_193
*639 FILLER_18_200
*640 FILLER_18_207
*641 FILLER_18_214
*642 FILLER_18_221
*643 FILLER_18_228
*644 FILLER_18_235
*645 FILLER_18_242
*646 FILLER_18_249
*647 FILLER_18_25
*648 FILLER_18_256
*649 FILLER_18_263
*650 FILLER_18_270
*651 FILLER_18_277
*652 FILLER_18_284
*653 FILLER_18_291
*654 FILLER_18_298
*655 FILLER_18_305
*656 FILLER_18_312
*657 FILLER_18_319
*658 FILLER_18_32
*659 FILLER_18_326
*660 FILLER_18_333
*661 FILLER_18_340
*662 FILLER_18_347
*663 FILLER_18_354
*664 FILLER_18_361
*665 FILLER_18_368
*666 FILLER_18_375
*667 FILLER_18_382
*668 FILLER_18_389
*669 FILLER_18_39
*670 FILLER_18_396
*671 FILLER_18_4
*672 FILLER_18_403
*673 FILLER_18_46
*674 FILLER_18_53
*675 FILLER_18_60
*676 FILLER_18_67
*677 FILLER_18_74
*678 FILLER_18_81
*679 FILLER_18_88
*680 FILLER_18_95
*681 FILLER_19_102
*682 FILLER_19_109
*683 FILLER_19_11
*684 FILLER_19_116
*685 FILLER_19_123
*686 FILLER_19_130
*687 FILLER_19_137
*688 FILLER_19_144
*689 FILLER_19_151
*690 FILLER_19_158
*691 FILLER_19_165
*692 FILLER_19_172
*693 FILLER_19_179
*694 FILLER_19_18
*695 FILLER_19_186
*696 FILLER_19_193
*697 FILLER_19_200
*698 FILLER_19_207
*699 FILLER_19_214
*700 FILLER_19_221
*701 FILLER_19_228
*702 FILLER_19_235
*703 FILLER_19_242
*704 FILLER_19_249
*705 FILLER_19_25
*706 FILLER_19_256
*707 FILLER_19_263
*708 FILLER_19_270
*709 FILLER_19_277
*710 FILLER_19_284
*711 FILLER_19_291
*712 FILLER_19_298
*713 FILLER_19_305
*714 FILLER_19_312
*715 FILLER_19_319
*716 FILLER_19_32
*717 FILLER_19_326
*718 FILLER_19_333
*719 FILLER_19_340
*720 FILLER_19_347
*721 FILLER_19_354
*722 FILLER_19_361
*723 FILLER_19_368
*724 FILLER_19_375
*725 FILLER_19_382
*726 FILLER_19_389
*727 FILLER_19_39
*728 FILLER_19_396
*729 FILLER_19_4
*730 FILLER_19_403
*731 FILLER_19_46
*732 FILLER_19_53
*733 FILLER_19_60
*734 FILLER_19_67
*735 FILLER_19_74
*736 FILLER_19_81
*737 FILLER_19_88
*738 FILLER_19_95
*739 FILLER_1_0
*740 FILLER_1_105
*741 FILLER_1_112
*742 FILLER_1_119
*743 FILLER_1_126
*744 FILLER_1_133
*745 FILLER_1_14
*746 FILLER_1_140
*747 FILLER_1_147
*748 FILLER_1_154
*749 FILLER_1_161
*750 FILLER_1_168
*751 FILLER_1_175
*752 FILLER_1_182
*753 FILLER_1_189
*754 FILLER_1_196
*755 FILLER_1_203
*756 FILLER_1_21
*757 FILLER_1_210
*758 FILLER_1_217
*759 FILLER_1_224
*760 FILLER_1_231
*761 FILLER_1_238
*762 FILLER_1_245
*763 FILLER_1_252
*764 FILLER_1_259
*765 FILLER_1_266
*766 FILLER_1_273
*767 FILLER_1_28
*768 FILLER_1_280
*769 FILLER_1_287
*770 FILLER_1_294
*771 FILLER_1_301
*772 FILLER_1_308
*773 FILLER_1_315
*774 FILLER_1_322
*775 FILLER_1_329
*776 FILLER_1_336
*777 FILLER_1_343
*778 FILLER_1_35
*779 FILLER_1_350
*780 FILLER_1_357
*781 FILLER_1_364
*782 FILLER_1_371
*783 FILLER_1_378
*784 FILLER_1_385
*785 FILLER_1_392
*786 FILLER_1_399
*787 FILLER_1_403
*788 FILLER_1_42
*789 FILLER_1_49
*790 FILLER_1_56
*791 FILLER_1_63
*792 FILLER_1_7
*793 FILLER_1_70
*794 FILLER_1_77
*795 FILLER_1_84
*796 FILLER_1_91
*797 FILLER_1_98
*798 FILLER_20_102
*799 FILLER_20_109
*800 FILLER_20_11
*801 FILLER_20_116
*802 FILLER_20_123
*803 FILLER_20_130
*804 FILLER_20_137
*805 FILLER_20_144
*806 FILLER_20_151
*807 FILLER_20_158
*808 FILLER_20_165
*809 FILLER_20_172
*810 FILLER_20_179
*811 FILLER_20_18
*812 FILLER_20_186
*813 FILLER_20_193
*814 FILLER_20_200
*815 FILLER_20_207
*816 FILLER_20_214
*817 FILLER_20_221
*818 FILLER_20_228
*819 FILLER_20_235
*820 FILLER_20_242
*821 FILLER_20_249
*822 FILLER_20_25
*823 FILLER_20_256
*824 FILLER_20_263
*825 FILLER_20_270
*826 FILLER_20_277
*827 FILLER_20_284
*828 FILLER_20_291
*829 FILLER_20_298
*830 FILLER_20_305
*831 FILLER_20_312
*832 FILLER_20_319
*833 FILLER_20_32
*834 FILLER_20_326
*835 FILLER_20_333
*836 FILLER_20_340
*837 FILLER_20_347
*838 FILLER_20_354
*839 FILLER_20_361
*840 FILLER_20_368
*841 FILLER_20_375
*842 FILLER_20_382
*843 FILLER_20_389
*844 FILLER_20_39
*845 FILLER_20_396
*846 FILLER_20_4
*847 FILLER_20_403
*848 FILLER_20_46
*849 FILLER_20_53
*850 FILLER_20_60
*851 FILLER_20_67
*852 FILLER_20_74
*853 FILLER_20_81
*854 FILLER_20_88
*855 FILLER_20_95
*856 FILLER_21_102
*857 FILLER_21_109
*858 FILLER_21_11
*859 FILLER_21_116
*860 FILLER_21_123
*861 FILLER_21_130
*862 FILLER_21_137
*863 FILLER_21_144
*864 FILLER_21_151
*865 FILLER_21_158
*866 FILLER_21_165
*867 FILLER_21_172
*868 FILLER_21_179
*869 FILLER_21_18
*870 FILLER_21_186
*871 FILLER_21_193
*872 FILLER_21_200
*873 FILLER_21_207
*874 FILLER_21_214
*875 FILLER_21_221
*876 FILLER_21_228
*877 FILLER_21_235
*878 FILLER_21_242
*879 FILLER_21_249
*880 FILLER_21_25
*881 FILLER_21_256
*882 FILLER_21_263
*883 FILLER_21_270
*884 FILLER_21_277
*885 FILLER_21_284
*886 FILLER_21_291
*887 FILLER_21_298
*888 FILLER_21_305
*889 FILLER_21_312
*890 FILLER_21_319
*891 FILLER_21_32
*892 FILLER_21_326
*893 FILLER_21_333
*894 FILLER_21_340
*895 FILLER_21_347
*896 FILLER_21_354
*897 FILLER_21_361
*898 FILLER_21_368
*899 FILLER_21_375
*900 FILLER_21_382
*901 FILLER_21_389
*902 FILLER_21_39
*903 FILLER_21_396
*904 FILLER_21_4
*905 FILLER_21_403
*906 FILLER_21_46
*907 FILLER_21_53
*908 FILLER_21_60
*909 FILLER_21_67
*910 FILLER_21_74
*911 FILLER_21_81
*912 FILLER_21_88
*913 FILLER_21_95
*914 FILLER_22_101
*915 FILLER_22_108
*916 FILLER_22_11
*917 FILLER_22_115
*918 FILLER_22_122
*919 FILLER_22_129
*920 FILLER_22_136
*921 FILLER_22_143
*922 FILLER_22_150
*923 FILLER_22_157
*924 FILLER_22_164
*925 FILLER_22_171
*926 FILLER_22_178
*927 FILLER_22_18
*928 FILLER_22_185
*929 FILLER_22_192
*930 FILLER_22_199
*931 FILLER_22_206
*932 FILLER_22_213
*933 FILLER_22_220
*934 FILLER_22_227
*935 FILLER_22_234
*936 FILLER_22_241
*937 FILLER_22_248
*938 FILLER_22_25
*939 FILLER_22_255
*940 FILLER_22_262
*941 FILLER_22_269
*942 FILLER_22_276
*943 FILLER_22_283
*944 FILLER_22_29
*945 FILLER_22_290
*946 FILLER_22_297
*947 FILLER_22_304
*948 FILLER_22_311
*949 FILLER_22_318
*950 FILLER_22_325
*951 FILLER_22_332
*952 FILLER_22_339
*953 FILLER_22_346
*954 FILLER_22_353
*955 FILLER_22_360
*956 FILLER_22_367
*957 FILLER_22_374
*958 FILLER_22_38
*959 FILLER_22_381
*960 FILLER_22_388
*961 FILLER_22_395
*962 FILLER_22_4
*963 FILLER_22_402
*964 FILLER_22_45
*965 FILLER_22_52
*966 FILLER_22_59
*967 FILLER_22_66
*968 FILLER_22_73
*969 FILLER_22_80
*970 FILLER_22_87
*971 FILLER_22_94
*972 FILLER_23_100
*973 FILLER_23_107
*974 FILLER_23_11
*975 FILLER_23_114
*976 FILLER_23_121
*977 FILLER_23_128
*978 FILLER_23_135
*979 FILLER_23_142
*980 FILLER_23_149
*981 FILLER_23_156
*982 FILLER_23_163
*983 FILLER_23_170
*984 FILLER_23_177
*985 FILLER_23_18
*986 FILLER_23_184
*987 FILLER_23_191
*988 FILLER_23_198
*989 FILLER_23_205
*990 FILLER_23_212
*991 FILLER_23_219
*992 FILLER_23_226
*993 FILLER_23_233
*994 FILLER_23_240
*995 FILLER_23_247
*996 FILLER_23_25
*997 FILLER_23_254
*998 FILLER_23_261
*999 FILLER_23_268
*1000 FILLER_23_275
*1001 FILLER_23_282
*1002 FILLER_23_289
*1003 FILLER_23_296
*1004 FILLER_23_303
*1005 FILLER_23_310
*1006 FILLER_23_317
*1007 FILLER_23_32
*1008 FILLER_23_324
*1009 FILLER_23_331
*1010 FILLER_23_338
*1011 FILLER_23_345
*1012 FILLER_23_352
*1013 FILLER_23_359
*1014 FILLER_23_366
*1015 FILLER_23_373
*1016 FILLER_23_380
*1017 FILLER_23_387
*1018 FILLER_23_39
*1019 FILLER_23_394
*1020 FILLER_23_4
*1021 FILLER_23_401
*1022 FILLER_23_403
*1023 FILLER_23_46
*1024 FILLER_23_53
*1025 FILLER_23_55
*1026 FILLER_23_72
*1027 FILLER_23_79
*1028 FILLER_23_86
*1029 FILLER_23_93
*1030 FILLER_24_102
*1031 FILLER_24_109
*1032 FILLER_24_11
*1033 FILLER_24_116
*1034 FILLER_24_123
*1035 FILLER_24_130
*1036 FILLER_24_137
*1037 FILLER_24_144
*1038 FILLER_24_151
*1039 FILLER_24_158
*1040 FILLER_24_165
*1041 FILLER_24_172
*1042 FILLER_24_179
*1043 FILLER_24_18
*1044 FILLER_24_186
*1045 FILLER_24_193
*1046 FILLER_24_200
*1047 FILLER_24_207
*1048 FILLER_24_214
*1049 FILLER_24_221
*1050 FILLER_24_228
*1051 FILLER_24_235
*1052 FILLER_24_242
*1053 FILLER_24_249
*1054 FILLER_24_25
*1055 FILLER_24_256
*1056 FILLER_24_263
*1057 FILLER_24_270
*1058 FILLER_24_277
*1059 FILLER_24_284
*1060 FILLER_24_291
*1061 FILLER_24_298
*1062 FILLER_24_305
*1063 FILLER_24_312
*1064 FILLER_24_319
*1065 FILLER_24_32
*1066 FILLER_24_326
*1067 FILLER_24_333
*1068 FILLER_24_340
*1069 FILLER_24_347
*1070 FILLER_24_354
*1071 FILLER_24_361
*1072 FILLER_24_368
*1073 FILLER_24_375
*1074 FILLER_24_382
*1075 FILLER_24_389
*1076 FILLER_24_39
*1077 FILLER_24_396
*1078 FILLER_24_4
*1079 FILLER_24_403
*1080 FILLER_24_46
*1081 FILLER_24_53
*1082 FILLER_24_60
*1083 FILLER_24_67
*1084 FILLER_24_74
*1085 FILLER_24_81
*1086 FILLER_24_88
*1087 FILLER_24_95
*1088 FILLER_25_102
*1089 FILLER_25_109
*1090 FILLER_25_11
*1091 FILLER_25_116
*1092 FILLER_25_123
*1093 FILLER_25_130
*1094 FILLER_25_137
*1095 FILLER_25_144
*1096 FILLER_25_151
*1097 FILLER_25_158
*1098 FILLER_25_165
*1099 FILLER_25_172
*1100 FILLER_25_179
*1101 FILLER_25_18
*1102 FILLER_25_186
*1103 FILLER_25_193
*1104 FILLER_25_200
*1105 FILLER_25_207
*1106 FILLER_25_214
*1107 FILLER_25_221
*1108 FILLER_25_228
*1109 FILLER_25_235
*1110 FILLER_25_242
*1111 FILLER_25_249
*1112 FILLER_25_25
*1113 FILLER_25_256
*1114 FILLER_25_263
*1115 FILLER_25_270
*1116 FILLER_25_277
*1117 FILLER_25_284
*1118 FILLER_25_291
*1119 FILLER_25_298
*1120 FILLER_25_305
*1121 FILLER_25_312
*1122 FILLER_25_319
*1123 FILLER_25_32
*1124 FILLER_25_326
*1125 FILLER_25_333
*1126 FILLER_25_340
*1127 FILLER_25_347
*1128 FILLER_25_354
*1129 FILLER_25_361
*1130 FILLER_25_368
*1131 FILLER_25_375
*1132 FILLER_25_382
*1133 FILLER_25_389
*1134 FILLER_25_39
*1135 FILLER_25_396
*1136 FILLER_25_4
*1137 FILLER_25_403
*1138 FILLER_25_46
*1139 FILLER_25_53
*1140 FILLER_25_60
*1141 FILLER_25_67
*1142 FILLER_25_74
*1143 FILLER_25_81
*1144 FILLER_25_88
*1145 FILLER_25_95
*1146 FILLER_26_106
*1147 FILLER_26_11
*1148 FILLER_26_113
*1149 FILLER_26_120
*1150 FILLER_26_127
*1151 FILLER_26_134
*1152 FILLER_26_141
*1153 FILLER_26_148
*1154 FILLER_26_155
*1155 FILLER_26_162
*1156 FILLER_26_169
*1157 FILLER_26_176
*1158 FILLER_26_18
*1159 FILLER_26_183
*1160 FILLER_26_190
*1161 FILLER_26_197
*1162 FILLER_26_204
*1163 FILLER_26_211
*1164 FILLER_26_218
*1165 FILLER_26_225
*1166 FILLER_26_232
*1167 FILLER_26_239
*1168 FILLER_26_246
*1169 FILLER_26_25
*1170 FILLER_26_253
*1171 FILLER_26_260
*1172 FILLER_26_267
*1173 FILLER_26_274
*1174 FILLER_26_281
*1175 FILLER_26_288
*1176 FILLER_26_29
*1177 FILLER_26_295
*1178 FILLER_26_302
*1179 FILLER_26_309
*1180 FILLER_26_316
*1181 FILLER_26_323
*1182 FILLER_26_330
*1183 FILLER_26_337
*1184 FILLER_26_344
*1185 FILLER_26_351
*1186 FILLER_26_358
*1187 FILLER_26_365
*1188 FILLER_26_372
*1189 FILLER_26_379
*1190 FILLER_26_386
*1191 FILLER_26_393
*1192 FILLER_26_4
*1193 FILLER_26_400
*1194 FILLER_26_43
*1195 FILLER_26_50
*1196 FILLER_26_57
*1197 FILLER_26_64
*1198 FILLER_26_71
*1199 FILLER_26_78
*1200 FILLER_26_85
*1201 FILLER_26_92
*1202 FILLER_26_99
*1203 FILLER_27_0
*1204 FILLER_27_105
*1205 FILLER_27_112
*1206 FILLER_27_119
*1207 FILLER_27_126
*1208 FILLER_27_133
*1209 FILLER_27_14
*1210 FILLER_27_140
*1211 FILLER_27_147
*1212 FILLER_27_154
*1213 FILLER_27_161
*1214 FILLER_27_168
*1215 FILLER_27_175
*1216 FILLER_27_182
*1217 FILLER_27_189
*1218 FILLER_27_196
*1219 FILLER_27_203
*1220 FILLER_27_21
*1221 FILLER_27_210
*1222 FILLER_27_217
*1223 FILLER_27_224
*1224 FILLER_27_231
*1225 FILLER_27_238
*1226 FILLER_27_245
*1227 FILLER_27_252
*1228 FILLER_27_259
*1229 FILLER_27_266
*1230 FILLER_27_273
*1231 FILLER_27_28
*1232 FILLER_27_280
*1233 FILLER_27_287
*1234 FILLER_27_294
*1235 FILLER_27_301
*1236 FILLER_27_308
*1237 FILLER_27_315
*1238 FILLER_27_322
*1239 FILLER_27_329
*1240 FILLER_27_336
*1241 FILLER_27_343
*1242 FILLER_27_35
*1243 FILLER_27_350
*1244 FILLER_27_357
*1245 FILLER_27_364
*1246 FILLER_27_371
*1247 FILLER_27_378
*1248 FILLER_27_385
*1249 FILLER_27_392
*1250 FILLER_27_399
*1251 FILLER_27_403
*1252 FILLER_27_42
*1253 FILLER_27_49
*1254 FILLER_27_56
*1255 FILLER_27_63
*1256 FILLER_27_7
*1257 FILLER_27_70
*1258 FILLER_27_77
*1259 FILLER_27_84
*1260 FILLER_27_91
*1261 FILLER_27_98
*1262 FILLER_28_102
*1263 FILLER_28_109
*1264 FILLER_28_11
*1265 FILLER_28_116
*1266 FILLER_28_123
*1267 FILLER_28_130
*1268 FILLER_28_137
*1269 FILLER_28_144
*1270 FILLER_28_151
*1271 FILLER_28_158
*1272 FILLER_28_165
*1273 FILLER_28_172
*1274 FILLER_28_179
*1275 FILLER_28_18
*1276 FILLER_28_186
*1277 FILLER_28_193
*1278 FILLER_28_200
*1279 FILLER_28_207
*1280 FILLER_28_214
*1281 FILLER_28_221
*1282 FILLER_28_228
*1283 FILLER_28_235
*1284 FILLER_28_242
*1285 FILLER_28_249
*1286 FILLER_28_25
*1287 FILLER_28_256
*1288 FILLER_28_263
*1289 FILLER_28_270
*1290 FILLER_28_277
*1291 FILLER_28_284
*1292 FILLER_28_291
*1293 FILLER_28_298
*1294 FILLER_28_305
*1295 FILLER_28_312
*1296 FILLER_28_319
*1297 FILLER_28_32
*1298 FILLER_28_326
*1299 FILLER_28_333
*1300 FILLER_28_340
*1301 FILLER_28_347
*1302 FILLER_28_354
*1303 FILLER_28_361
*1304 FILLER_28_368
*1305 FILLER_28_375
*1306 FILLER_28_382
*1307 FILLER_28_389
*1308 FILLER_28_39
*1309 FILLER_28_396
*1310 FILLER_28_4
*1311 FILLER_28_403
*1312 FILLER_28_46
*1313 FILLER_28_53
*1314 FILLER_28_60
*1315 FILLER_28_67
*1316 FILLER_28_74
*1317 FILLER_28_81
*1318 FILLER_28_88
*1319 FILLER_28_95
*1320 FILLER_29_102
*1321 FILLER_29_109
*1322 FILLER_29_11
*1323 FILLER_29_116
*1324 FILLER_29_123
*1325 FILLER_29_13
*1326 FILLER_29_130
*1327 FILLER_29_137
*1328 FILLER_29_144
*1329 FILLER_29_151
*1330 FILLER_29_158
*1331 FILLER_29_165
*1332 FILLER_29_172
*1333 FILLER_29_179
*1334 FILLER_29_186
*1335 FILLER_29_193
*1336 FILLER_29_200
*1337 FILLER_29_207
*1338 FILLER_29_214
*1339 FILLER_29_22
*1340 FILLER_29_221
*1341 FILLER_29_228
*1342 FILLER_29_235
*1343 FILLER_29_242
*1344 FILLER_29_249
*1345 FILLER_29_256
*1346 FILLER_29_263
*1347 FILLER_29_270
*1348 FILLER_29_277
*1349 FILLER_29_284
*1350 FILLER_29_29
*1351 FILLER_29_291
*1352 FILLER_29_298
*1353 FILLER_29_305
*1354 FILLER_29_312
*1355 FILLER_29_319
*1356 FILLER_29_326
*1357 FILLER_29_333
*1358 FILLER_29_340
*1359 FILLER_29_347
*1360 FILLER_29_354
*1361 FILLER_29_36
*1362 FILLER_29_361
*1363 FILLER_29_368
*1364 FILLER_29_375
*1365 FILLER_29_382
*1366 FILLER_29_389
*1367 FILLER_29_396
*1368 FILLER_29_4
*1369 FILLER_29_403
*1370 FILLER_29_43
*1371 FILLER_29_50
*1372 FILLER_29_57
*1373 FILLER_29_61
*1374 FILLER_29_81
*1375 FILLER_29_88
*1376 FILLER_29_95
*1377 FILLER_2_102
*1378 FILLER_2_109
*1379 FILLER_2_11
*1380 FILLER_2_116
*1381 FILLER_2_123
*1382 FILLER_2_130
*1383 FILLER_2_137
*1384 FILLER_2_144
*1385 FILLER_2_151
*1386 FILLER_2_158
*1387 FILLER_2_165
*1388 FILLER_2_172
*1389 FILLER_2_179
*1390 FILLER_2_18
*1391 FILLER_2_186
*1392 FILLER_2_193
*1393 FILLER_2_200
*1394 FILLER_2_207
*1395 FILLER_2_214
*1396 FILLER_2_221
*1397 FILLER_2_228
*1398 FILLER_2_235
*1399 FILLER_2_242
*1400 FILLER_2_249
*1401 FILLER_2_25
*1402 FILLER_2_256
*1403 FILLER_2_263
*1404 FILLER_2_270
*1405 FILLER_2_277
*1406 FILLER_2_284
*1407 FILLER_2_291
*1408 FILLER_2_298
*1409 FILLER_2_305
*1410 FILLER_2_312
*1411 FILLER_2_319
*1412 FILLER_2_32
*1413 FILLER_2_326
*1414 FILLER_2_333
*1415 FILLER_2_340
*1416 FILLER_2_347
*1417 FILLER_2_354
*1418 FILLER_2_361
*1419 FILLER_2_368
*1420 FILLER_2_375
*1421 FILLER_2_382
*1422 FILLER_2_389
*1423 FILLER_2_39
*1424 FILLER_2_396
*1425 FILLER_2_4
*1426 FILLER_2_403
*1427 FILLER_2_46
*1428 FILLER_2_53
*1429 FILLER_2_60
*1430 FILLER_2_67
*1431 FILLER_2_74
*1432 FILLER_2_81
*1433 FILLER_2_88
*1434 FILLER_2_95
*1435 FILLER_30_105
*1436 FILLER_30_11
*1437 FILLER_30_112
*1438 FILLER_30_119
*1439 FILLER_30_126
*1440 FILLER_30_133
*1441 FILLER_30_140
*1442 FILLER_30_147
*1443 FILLER_30_154
*1444 FILLER_30_161
*1445 FILLER_30_168
*1446 FILLER_30_175
*1447 FILLER_30_182
*1448 FILLER_30_189
*1449 FILLER_30_196
*1450 FILLER_30_20
*1451 FILLER_30_203
*1452 FILLER_30_210
*1453 FILLER_30_217
*1454 FILLER_30_224
*1455 FILLER_30_231
*1456 FILLER_30_238
*1457 FILLER_30_245
*1458 FILLER_30_252
*1459 FILLER_30_259
*1460 FILLER_30_266
*1461 FILLER_30_27
*1462 FILLER_30_273
*1463 FILLER_30_280
*1464 FILLER_30_287
*1465 FILLER_30_294
*1466 FILLER_30_301
*1467 FILLER_30_308
*1468 FILLER_30_315
*1469 FILLER_30_322
*1470 FILLER_30_329
*1471 FILLER_30_336
*1472 FILLER_30_34
*1473 FILLER_30_343
*1474 FILLER_30_350
*1475 FILLER_30_357
*1476 FILLER_30_364
*1477 FILLER_30_371
*1478 FILLER_30_378
*1479 FILLER_30_385
*1480 FILLER_30_392
*1481 FILLER_30_399
*1482 FILLER_30_4
*1483 FILLER_30_403
*1484 FILLER_30_41
*1485 FILLER_30_48
*1486 FILLER_30_55
*1487 FILLER_30_62
*1488 FILLER_30_66
*1489 FILLER_30_77
*1490 FILLER_30_84
*1491 FILLER_30_91
*1492 FILLER_30_98
*1493 FILLER_31_102
*1494 FILLER_31_109
*1495 FILLER_31_11
*1496 FILLER_31_116
*1497 FILLER_31_123
*1498 FILLER_31_130
*1499 FILLER_31_137
*1500 FILLER_31_144
*1501 FILLER_31_151
*1502 FILLER_31_158
*1503 FILLER_31_165
*1504 FILLER_31_172
*1505 FILLER_31_179
*1506 FILLER_31_18
*1507 FILLER_31_186
*1508 FILLER_31_193
*1509 FILLER_31_200
*1510 FILLER_31_207
*1511 FILLER_31_214
*1512 FILLER_31_221
*1513 FILLER_31_228
*1514 FILLER_31_235
*1515 FILLER_31_242
*1516 FILLER_31_249
*1517 FILLER_31_25
*1518 FILLER_31_256
*1519 FILLER_31_263
*1520 FILLER_31_270
*1521 FILLER_31_277
*1522 FILLER_31_284
*1523 FILLER_31_291
*1524 FILLER_31_298
*1525 FILLER_31_305
*1526 FILLER_31_312
*1527 FILLER_31_319
*1528 FILLER_31_32
*1529 FILLER_31_326
*1530 FILLER_31_333
*1531 FILLER_31_340
*1532 FILLER_31_347
*1533 FILLER_31_354
*1534 FILLER_31_361
*1535 FILLER_31_368
*1536 FILLER_31_375
*1537 FILLER_31_382
*1538 FILLER_31_389
*1539 FILLER_31_39
*1540 FILLER_31_396
*1541 FILLER_31_4
*1542 FILLER_31_403
*1543 FILLER_31_46
*1544 FILLER_31_53
*1545 FILLER_31_60
*1546 FILLER_31_67
*1547 FILLER_31_74
*1548 FILLER_31_81
*1549 FILLER_31_88
*1550 FILLER_31_95
*1551 FILLER_32_102
*1552 FILLER_32_109
*1553 FILLER_32_11
*1554 FILLER_32_116
*1555 FILLER_32_123
*1556 FILLER_32_130
*1557 FILLER_32_137
*1558 FILLER_32_144
*1559 FILLER_32_151
*1560 FILLER_32_158
*1561 FILLER_32_165
*1562 FILLER_32_172
*1563 FILLER_32_179
*1564 FILLER_32_18
*1565 FILLER_32_186
*1566 FILLER_32_193
*1567 FILLER_32_200
*1568 FILLER_32_207
*1569 FILLER_32_214
*1570 FILLER_32_221
*1571 FILLER_32_228
*1572 FILLER_32_235
*1573 FILLER_32_242
*1574 FILLER_32_249
*1575 FILLER_32_256
*1576 FILLER_32_263
*1577 FILLER_32_270
*1578 FILLER_32_277
*1579 FILLER_32_284
*1580 FILLER_32_291
*1581 FILLER_32_298
*1582 FILLER_32_305
*1583 FILLER_32_312
*1584 FILLER_32_319
*1585 FILLER_32_32
*1586 FILLER_32_326
*1587 FILLER_32_333
*1588 FILLER_32_340
*1589 FILLER_32_347
*1590 FILLER_32_354
*1591 FILLER_32_361
*1592 FILLER_32_368
*1593 FILLER_32_375
*1594 FILLER_32_382
*1595 FILLER_32_389
*1596 FILLER_32_39
*1597 FILLER_32_396
*1598 FILLER_32_4
*1599 FILLER_32_403
*1600 FILLER_32_46
*1601 FILLER_32_53
*1602 FILLER_32_60
*1603 FILLER_32_67
*1604 FILLER_32_74
*1605 FILLER_32_81
*1606 FILLER_32_88
*1607 FILLER_32_95
*1608 FILLER_33_102
*1609 FILLER_33_109
*1610 FILLER_33_11
*1611 FILLER_33_116
*1612 FILLER_33_123
*1613 FILLER_33_130
*1614 FILLER_33_137
*1615 FILLER_33_144
*1616 FILLER_33_151
*1617 FILLER_33_158
*1618 FILLER_33_165
*1619 FILLER_33_172
*1620 FILLER_33_179
*1621 FILLER_33_18
*1622 FILLER_33_186
*1623 FILLER_33_193
*1624 FILLER_33_200
*1625 FILLER_33_207
*1626 FILLER_33_214
*1627 FILLER_33_221
*1628 FILLER_33_228
*1629 FILLER_33_235
*1630 FILLER_33_242
*1631 FILLER_33_249
*1632 FILLER_33_25
*1633 FILLER_33_256
*1634 FILLER_33_263
*1635 FILLER_33_270
*1636 FILLER_33_277
*1637 FILLER_33_284
*1638 FILLER_33_291
*1639 FILLER_33_298
*1640 FILLER_33_305
*1641 FILLER_33_312
*1642 FILLER_33_319
*1643 FILLER_33_32
*1644 FILLER_33_326
*1645 FILLER_33_333
*1646 FILLER_33_340
*1647 FILLER_33_347
*1648 FILLER_33_354
*1649 FILLER_33_361
*1650 FILLER_33_368
*1651 FILLER_33_375
*1652 FILLER_33_382
*1653 FILLER_33_389
*1654 FILLER_33_39
*1655 FILLER_33_396
*1656 FILLER_33_4
*1657 FILLER_33_403
*1658 FILLER_33_46
*1659 FILLER_33_53
*1660 FILLER_33_60
*1661 FILLER_33_67
*1662 FILLER_33_74
*1663 FILLER_33_81
*1664 FILLER_33_88
*1665 FILLER_33_95
*1666 FILLER_34_104
*1667 FILLER_34_111
*1668 FILLER_34_118
*1669 FILLER_34_125
*1670 FILLER_34_132
*1671 FILLER_34_139
*1672 FILLER_34_146
*1673 FILLER_34_153
*1674 FILLER_34_160
*1675 FILLER_34_167
*1676 FILLER_34_174
*1677 FILLER_34_181
*1678 FILLER_34_188
*1679 FILLER_34_195
*1680 FILLER_34_202
*1681 FILLER_34_209
*1682 FILLER_34_216
*1683 FILLER_34_223
*1684 FILLER_34_230
*1685 FILLER_34_237
*1686 FILLER_34_24
*1687 FILLER_34_244
*1688 FILLER_34_251
*1689 FILLER_34_258
*1690 FILLER_34_265
*1691 FILLER_34_272
*1692 FILLER_34_279
*1693 FILLER_34_286
*1694 FILLER_34_293
*1695 FILLER_34_300
*1696 FILLER_34_307
*1697 FILLER_34_31
*1698 FILLER_34_314
*1699 FILLER_34_321
*1700 FILLER_34_328
*1701 FILLER_34_335
*1702 FILLER_34_342
*1703 FILLER_34_349
*1704 FILLER_34_356
*1705 FILLER_34_363
*1706 FILLER_34_370
*1707 FILLER_34_377
*1708 FILLER_34_38
*1709 FILLER_34_384
*1710 FILLER_34_391
*1711 FILLER_34_398
*1712 FILLER_34_4
*1713 FILLER_34_402
*1714 FILLER_34_45
*1715 FILLER_34_52
*1716 FILLER_34_59
*1717 FILLER_34_69
*1718 FILLER_34_76
*1719 FILLER_34_83
*1720 FILLER_34_90
*1721 FILLER_34_97
*1722 FILLER_35_103
*1723 FILLER_35_11
*1724 FILLER_35_110
*1725 FILLER_35_117
*1726 FILLER_35_124
*1727 FILLER_35_131
*1728 FILLER_35_138
*1729 FILLER_35_145
*1730 FILLER_35_152
*1731 FILLER_35_159
*1732 FILLER_35_166
*1733 FILLER_35_173
*1734 FILLER_35_18
*1735 FILLER_35_180
*1736 FILLER_35_187
*1737 FILLER_35_194
*1738 FILLER_35_201
*1739 FILLER_35_208
*1740 FILLER_35_215
*1741 FILLER_35_222
*1742 FILLER_35_229
*1743 FILLER_35_236
*1744 FILLER_35_243
*1745 FILLER_35_25
*1746 FILLER_35_250
*1747 FILLER_35_257
*1748 FILLER_35_264
*1749 FILLER_35_271
*1750 FILLER_35_278
*1751 FILLER_35_285
*1752 FILLER_35_292
*1753 FILLER_35_299
*1754 FILLER_35_306
*1755 FILLER_35_313
*1756 FILLER_35_32
*1757 FILLER_35_320
*1758 FILLER_35_327
*1759 FILLER_35_334
*1760 FILLER_35_341
*1761 FILLER_35_348
*1762 FILLER_35_355
*1763 FILLER_35_362
*1764 FILLER_35_369
*1765 FILLER_35_376
*1766 FILLER_35_383
*1767 FILLER_35_39
*1768 FILLER_35_390
*1769 FILLER_35_397
*1770 FILLER_35_4
*1771 FILLER_35_46
*1772 FILLER_35_53
*1773 FILLER_35_60
*1774 FILLER_35_75
*1775 FILLER_35_82
*1776 FILLER_35_89
*1777 FILLER_35_96
*1778 FILLER_36_105
*1779 FILLER_36_11
*1780 FILLER_36_112
*1781 FILLER_36_119
*1782 FILLER_36_126
*1783 FILLER_36_133
*1784 FILLER_36_140
*1785 FILLER_36_147
*1786 FILLER_36_154
*1787 FILLER_36_161
*1788 FILLER_36_168
*1789 FILLER_36_175
*1790 FILLER_36_18
*1791 FILLER_36_182
*1792 FILLER_36_189
*1793 FILLER_36_196
*1794 FILLER_36_203
*1795 FILLER_36_210
*1796 FILLER_36_217
*1797 FILLER_36_224
*1798 FILLER_36_231
*1799 FILLER_36_238
*1800 FILLER_36_245
*1801 FILLER_36_25
*1802 FILLER_36_252
*1803 FILLER_36_259
*1804 FILLER_36_266
*1805 FILLER_36_273
*1806 FILLER_36_280
*1807 FILLER_36_287
*1808 FILLER_36_294
*1809 FILLER_36_301
*1810 FILLER_36_308
*1811 FILLER_36_315
*1812 FILLER_36_32
*1813 FILLER_36_322
*1814 FILLER_36_329
*1815 FILLER_36_336
*1816 FILLER_36_343
*1817 FILLER_36_350
*1818 FILLER_36_357
*1819 FILLER_36_364
*1820 FILLER_36_371
*1821 FILLER_36_378
*1822 FILLER_36_385
*1823 FILLER_36_39
*1824 FILLER_36_392
*1825 FILLER_36_399
*1826 FILLER_36_4
*1827 FILLER_36_403
*1828 FILLER_36_46
*1829 FILLER_36_53
*1830 FILLER_36_57
*1831 FILLER_36_70
*1832 FILLER_36_77
*1833 FILLER_36_84
*1834 FILLER_36_91
*1835 FILLER_36_98
*1836 FILLER_37_0
*1837 FILLER_37_104
*1838 FILLER_37_111
*1839 FILLER_37_118
*1840 FILLER_37_125
*1841 FILLER_37_132
*1842 FILLER_37_139
*1843 FILLER_37_14
*1844 FILLER_37_146
*1845 FILLER_37_153
*1846 FILLER_37_160
*1847 FILLER_37_167
*1848 FILLER_37_174
*1849 FILLER_37_181
*1850 FILLER_37_188
*1851 FILLER_37_195
*1852 FILLER_37_202
*1853 FILLER_37_209
*1854 FILLER_37_216
*1855 FILLER_37_223
*1856 FILLER_37_230
*1857 FILLER_37_237
*1858 FILLER_37_244
*1859 FILLER_37_251
*1860 FILLER_37_258
*1861 FILLER_37_265
*1862 FILLER_37_27
*1863 FILLER_37_272
*1864 FILLER_37_279
*1865 FILLER_37_286
*1866 FILLER_37_293
*1867 FILLER_37_300
*1868 FILLER_37_307
*1869 FILLER_37_314
*1870 FILLER_37_321
*1871 FILLER_37_328
*1872 FILLER_37_335
*1873 FILLER_37_34
*1874 FILLER_37_342
*1875 FILLER_37_349
*1876 FILLER_37_356
*1877 FILLER_37_363
*1878 FILLER_37_370
*1879 FILLER_37_377
*1880 FILLER_37_384
*1881 FILLER_37_391
*1882 FILLER_37_398
*1883 FILLER_37_402
*1884 FILLER_37_41
*1885 FILLER_37_48
*1886 FILLER_37_55
*1887 FILLER_37_62
*1888 FILLER_37_69
*1889 FILLER_37_7
*1890 FILLER_37_76
*1891 FILLER_37_83
*1892 FILLER_37_90
*1893 FILLER_37_97
*1894 FILLER_38_102
*1895 FILLER_38_109
*1896 FILLER_38_11
*1897 FILLER_38_116
*1898 FILLER_38_123
*1899 FILLER_38_130
*1900 FILLER_38_137
*1901 FILLER_38_144
*1902 FILLER_38_151
*1903 FILLER_38_158
*1904 FILLER_38_165
*1905 FILLER_38_172
*1906 FILLER_38_179
*1907 FILLER_38_18
*1908 FILLER_38_186
*1909 FILLER_38_193
*1910 FILLER_38_200
*1911 FILLER_38_207
*1912 FILLER_38_214
*1913 FILLER_38_221
*1914 FILLER_38_228
*1915 FILLER_38_235
*1916 FILLER_38_242
*1917 FILLER_38_249
*1918 FILLER_38_25
*1919 FILLER_38_256
*1920 FILLER_38_263
*1921 FILLER_38_270
*1922 FILLER_38_277
*1923 FILLER_38_284
*1924 FILLER_38_291
*1925 FILLER_38_298
*1926 FILLER_38_305
*1927 FILLER_38_312
*1928 FILLER_38_319
*1929 FILLER_38_32
*1930 FILLER_38_326
*1931 FILLER_38_333
*1932 FILLER_38_340
*1933 FILLER_38_347
*1934 FILLER_38_354
*1935 FILLER_38_361
*1936 FILLER_38_368
*1937 FILLER_38_375
*1938 FILLER_38_382
*1939 FILLER_38_389
*1940 FILLER_38_39
*1941 FILLER_38_396
*1942 FILLER_38_4
*1943 FILLER_38_403
*1944 FILLER_38_46
*1945 FILLER_38_53
*1946 FILLER_38_60
*1947 FILLER_38_67
*1948 FILLER_38_74
*1949 FILLER_38_81
*1950 FILLER_38_88
*1951 FILLER_38_95
*1952 FILLER_39_106
*1953 FILLER_39_11
*1954 FILLER_39_113
*1955 FILLER_39_120
*1956 FILLER_39_127
*1957 FILLER_39_134
*1958 FILLER_39_141
*1959 FILLER_39_148
*1960 FILLER_39_15
*1961 FILLER_39_155
*1962 FILLER_39_162
*1963 FILLER_39_169
*1964 FILLER_39_176
*1965 FILLER_39_183
*1966 FILLER_39_190
*1967 FILLER_39_197
*1968 FILLER_39_204
*1969 FILLER_39_211
*1970 FILLER_39_218
*1971 FILLER_39_225
*1972 FILLER_39_232
*1973 FILLER_39_239
*1974 FILLER_39_246
*1975 FILLER_39_25
*1976 FILLER_39_253
*1977 FILLER_39_260
*1978 FILLER_39_267
*1979 FILLER_39_274
*1980 FILLER_39_281
*1981 FILLER_39_288
*1982 FILLER_39_295
*1983 FILLER_39_302
*1984 FILLER_39_309
*1985 FILLER_39_316
*1986 FILLER_39_32
*1987 FILLER_39_323
*1988 FILLER_39_330
*1989 FILLER_39_337
*1990 FILLER_39_344
*1991 FILLER_39_351
*1992 FILLER_39_358
*1993 FILLER_39_365
*1994 FILLER_39_372
*1995 FILLER_39_379
*1996 FILLER_39_386
*1997 FILLER_39_39
*1998 FILLER_39_393
*1999 FILLER_39_4
*2000 FILLER_39_400
*2001 FILLER_39_46
*2002 FILLER_39_53
*2003 FILLER_39_60
*2004 FILLER_39_71
*2005 FILLER_39_78
*2006 FILLER_39_85
*2007 FILLER_39_92
*2008 FILLER_39_99
*2009 FILLER_3_102
*2010 FILLER_3_109
*2011 FILLER_3_11
*2012 FILLER_3_116
*2013 FILLER_3_123
*2014 FILLER_3_130
*2015 FILLER_3_137
*2016 FILLER_3_144
*2017 FILLER_3_151
*2018 FILLER_3_158
*2019 FILLER_3_165
*2020 FILLER_3_172
*2021 FILLER_3_179
*2022 FILLER_3_18
*2023 FILLER_3_186
*2024 FILLER_3_193
*2025 FILLER_3_200
*2026 FILLER_3_207
*2027 FILLER_3_214
*2028 FILLER_3_221
*2029 FILLER_3_228
*2030 FILLER_3_235
*2031 FILLER_3_242
*2032 FILLER_3_249
*2033 FILLER_3_25
*2034 FILLER_3_256
*2035 FILLER_3_263
*2036 FILLER_3_270
*2037 FILLER_3_277
*2038 FILLER_3_284
*2039 FILLER_3_291
*2040 FILLER_3_298
*2041 FILLER_3_305
*2042 FILLER_3_312
*2043 FILLER_3_319
*2044 FILLER_3_32
*2045 FILLER_3_326
*2046 FILLER_3_333
*2047 FILLER_3_340
*2048 FILLER_3_347
*2049 FILLER_3_354
*2050 FILLER_3_361
*2051 FILLER_3_368
*2052 FILLER_3_375
*2053 FILLER_3_382
*2054 FILLER_3_389
*2055 FILLER_3_39
*2056 FILLER_3_396
*2057 FILLER_3_4
*2058 FILLER_3_403
*2059 FILLER_3_46
*2060 FILLER_3_53
*2061 FILLER_3_60
*2062 FILLER_3_67
*2063 FILLER_3_74
*2064 FILLER_3_81
*2065 FILLER_3_88
*2066 FILLER_3_95
*2067 FILLER_40_106
*2068 FILLER_40_11
*2069 FILLER_40_113
*2070 FILLER_40_120
*2071 FILLER_40_127
*2072 FILLER_40_134
*2073 FILLER_40_141
*2074 FILLER_40_148
*2075 FILLER_40_15
*2076 FILLER_40_155
*2077 FILLER_40_162
*2078 FILLER_40_169
*2079 FILLER_40_176
*2080 FILLER_40_183
*2081 FILLER_40_190
*2082 FILLER_40_197
*2083 FILLER_40_204
*2084 FILLER_40_211
*2085 FILLER_40_218
*2086 FILLER_40_225
*2087 FILLER_40_232
*2088 FILLER_40_239
*2089 FILLER_40_24
*2090 FILLER_40_246
*2091 FILLER_40_253
*2092 FILLER_40_260
*2093 FILLER_40_267
*2094 FILLER_40_274
*2095 FILLER_40_281
*2096 FILLER_40_288
*2097 FILLER_40_295
*2098 FILLER_40_302
*2099 FILLER_40_309
*2100 FILLER_40_31
*2101 FILLER_40_316
*2102 FILLER_40_323
*2103 FILLER_40_330
*2104 FILLER_40_337
*2105 FILLER_40_344
*2106 FILLER_40_351
*2107 FILLER_40_358
*2108 FILLER_40_365
*2109 FILLER_40_372
*2110 FILLER_40_379
*2111 FILLER_40_38
*2112 FILLER_40_386
*2113 FILLER_40_393
*2114 FILLER_40_4
*2115 FILLER_40_400
*2116 FILLER_40_45
*2117 FILLER_40_52
*2118 FILLER_40_71
*2119 FILLER_40_78
*2120 FILLER_40_85
*2121 FILLER_40_92
*2122 FILLER_40_99
*2123 FILLER_41_102
*2124 FILLER_41_109
*2125 FILLER_41_11
*2126 FILLER_41_116
*2127 FILLER_41_123
*2128 FILLER_41_130
*2129 FILLER_41_137
*2130 FILLER_41_144
*2131 FILLER_41_151
*2132 FILLER_41_158
*2133 FILLER_41_165
*2134 FILLER_41_172
*2135 FILLER_41_179
*2136 FILLER_41_18
*2137 FILLER_41_186
*2138 FILLER_41_193
*2139 FILLER_41_200
*2140 FILLER_41_207
*2141 FILLER_41_214
*2142 FILLER_41_221
*2143 FILLER_41_228
*2144 FILLER_41_235
*2145 FILLER_41_242
*2146 FILLER_41_249
*2147 FILLER_41_25
*2148 FILLER_41_256
*2149 FILLER_41_263
*2150 FILLER_41_270
*2151 FILLER_41_277
*2152 FILLER_41_284
*2153 FILLER_41_291
*2154 FILLER_41_298
*2155 FILLER_41_305
*2156 FILLER_41_312
*2157 FILLER_41_319
*2158 FILLER_41_32
*2159 FILLER_41_326
*2160 FILLER_41_333
*2161 FILLER_41_340
*2162 FILLER_41_347
*2163 FILLER_41_354
*2164 FILLER_41_361
*2165 FILLER_41_368
*2166 FILLER_41_375
*2167 FILLER_41_382
*2168 FILLER_41_389
*2169 FILLER_41_39
*2170 FILLER_41_396
*2171 FILLER_41_4
*2172 FILLER_41_403
*2173 FILLER_41_46
*2174 FILLER_41_53
*2175 FILLER_41_60
*2176 FILLER_41_74
*2177 FILLER_41_81
*2178 FILLER_41_88
*2179 FILLER_41_95
*2180 FILLER_42_102
*2181 FILLER_42_109
*2182 FILLER_42_11
*2183 FILLER_42_116
*2184 FILLER_42_123
*2185 FILLER_42_130
*2186 FILLER_42_137
*2187 FILLER_42_144
*2188 FILLER_42_151
*2189 FILLER_42_158
*2190 FILLER_42_165
*2191 FILLER_42_172
*2192 FILLER_42_179
*2193 FILLER_42_18
*2194 FILLER_42_186
*2195 FILLER_42_193
*2196 FILLER_42_200
*2197 FILLER_42_207
*2198 FILLER_42_214
*2199 FILLER_42_221
*2200 FILLER_42_228
*2201 FILLER_42_235
*2202 FILLER_42_242
*2203 FILLER_42_249
*2204 FILLER_42_25
*2205 FILLER_42_256
*2206 FILLER_42_263
*2207 FILLER_42_270
*2208 FILLER_42_277
*2209 FILLER_42_284
*2210 FILLER_42_291
*2211 FILLER_42_298
*2212 FILLER_42_305
*2213 FILLER_42_312
*2214 FILLER_42_319
*2215 FILLER_42_32
*2216 FILLER_42_326
*2217 FILLER_42_333
*2218 FILLER_42_340
*2219 FILLER_42_347
*2220 FILLER_42_354
*2221 FILLER_42_361
*2222 FILLER_42_368
*2223 FILLER_42_375
*2224 FILLER_42_382
*2225 FILLER_42_389
*2226 FILLER_42_39
*2227 FILLER_42_396
*2228 FILLER_42_4
*2229 FILLER_42_403
*2230 FILLER_42_46
*2231 FILLER_42_53
*2232 FILLER_42_60
*2233 FILLER_42_67
*2234 FILLER_42_74
*2235 FILLER_42_81
*2236 FILLER_42_88
*2237 FILLER_42_95
*2238 FILLER_43_101
*2239 FILLER_43_108
*2240 FILLER_43_115
*2241 FILLER_43_122
*2242 FILLER_43_129
*2243 FILLER_43_136
*2244 FILLER_43_143
*2245 FILLER_43_150
*2246 FILLER_43_157
*2247 FILLER_43_164
*2248 FILLER_43_171
*2249 FILLER_43_178
*2250 FILLER_43_185
*2251 FILLER_43_192
*2252 FILLER_43_199
*2253 FILLER_43_206
*2254 FILLER_43_213
*2255 FILLER_43_220
*2256 FILLER_43_227
*2257 FILLER_43_234
*2258 FILLER_43_24
*2259 FILLER_43_241
*2260 FILLER_43_248
*2261 FILLER_43_255
*2262 FILLER_43_262
*2263 FILLER_43_269
*2264 FILLER_43_276
*2265 FILLER_43_283
*2266 FILLER_43_290
*2267 FILLER_43_297
*2268 FILLER_43_304
*2269 FILLER_43_31
*2270 FILLER_43_311
*2271 FILLER_43_318
*2272 FILLER_43_325
*2273 FILLER_43_332
*2274 FILLER_43_339
*2275 FILLER_43_346
*2276 FILLER_43_353
*2277 FILLER_43_360
*2278 FILLER_43_367
*2279 FILLER_43_374
*2280 FILLER_43_38
*2281 FILLER_43_381
*2282 FILLER_43_388
*2283 FILLER_43_395
*2284 FILLER_43_4
*2285 FILLER_43_402
*2286 FILLER_43_45
*2287 FILLER_43_52
*2288 FILLER_43_59
*2289 FILLER_43_66
*2290 FILLER_43_73
*2291 FILLER_43_80
*2292 FILLER_43_87
*2293 FILLER_43_94
*2294 FILLER_44_102
*2295 FILLER_44_109
*2296 FILLER_44_11
*2297 FILLER_44_116
*2298 FILLER_44_123
*2299 FILLER_44_130
*2300 FILLER_44_137
*2301 FILLER_44_144
*2302 FILLER_44_151
*2303 FILLER_44_158
*2304 FILLER_44_165
*2305 FILLER_44_172
*2306 FILLER_44_179
*2307 FILLER_44_18
*2308 FILLER_44_186
*2309 FILLER_44_193
*2310 FILLER_44_200
*2311 FILLER_44_207
*2312 FILLER_44_214
*2313 FILLER_44_221
*2314 FILLER_44_228
*2315 FILLER_44_235
*2316 FILLER_44_242
*2317 FILLER_44_249
*2318 FILLER_44_25
*2319 FILLER_44_256
*2320 FILLER_44_263
*2321 FILLER_44_270
*2322 FILLER_44_277
*2323 FILLER_44_284
*2324 FILLER_44_291
*2325 FILLER_44_298
*2326 FILLER_44_305
*2327 FILLER_44_312
*2328 FILLER_44_319
*2329 FILLER_44_32
*2330 FILLER_44_326
*2331 FILLER_44_333
*2332 FILLER_44_340
*2333 FILLER_44_347
*2334 FILLER_44_354
*2335 FILLER_44_361
*2336 FILLER_44_368
*2337 FILLER_44_375
*2338 FILLER_44_382
*2339 FILLER_44_389
*2340 FILLER_44_39
*2341 FILLER_44_396
*2342 FILLER_44_4
*2343 FILLER_44_403
*2344 FILLER_44_46
*2345 FILLER_44_53
*2346 FILLER_44_60
*2347 FILLER_44_67
*2348 FILLER_44_74
*2349 FILLER_44_81
*2350 FILLER_44_88
*2351 FILLER_44_95
*2352 FILLER_45_106
*2353 FILLER_45_11
*2354 FILLER_45_113
*2355 FILLER_45_120
*2356 FILLER_45_127
*2357 FILLER_45_13
*2358 FILLER_45_134
*2359 FILLER_45_141
*2360 FILLER_45_148
*2361 FILLER_45_155
*2362 FILLER_45_162
*2363 FILLER_45_169
*2364 FILLER_45_176
*2365 FILLER_45_183
*2366 FILLER_45_190
*2367 FILLER_45_197
*2368 FILLER_45_204
*2369 FILLER_45_211
*2370 FILLER_45_218
*2371 FILLER_45_22
*2372 FILLER_45_225
*2373 FILLER_45_232
*2374 FILLER_45_239
*2375 FILLER_45_246
*2376 FILLER_45_253
*2377 FILLER_45_260
*2378 FILLER_45_267
*2379 FILLER_45_274
*2380 FILLER_45_281
*2381 FILLER_45_288
*2382 FILLER_45_29
*2383 FILLER_45_295
*2384 FILLER_45_302
*2385 FILLER_45_309
*2386 FILLER_45_316
*2387 FILLER_45_323
*2388 FILLER_45_330
*2389 FILLER_45_337
*2390 FILLER_45_344
*2391 FILLER_45_351
*2392 FILLER_45_358
*2393 FILLER_45_36
*2394 FILLER_45_365
*2395 FILLER_45_372
*2396 FILLER_45_379
*2397 FILLER_45_386
*2398 FILLER_45_393
*2399 FILLER_45_4
*2400 FILLER_45_400
*2401 FILLER_45_43
*2402 FILLER_45_50
*2403 FILLER_45_57
*2404 FILLER_45_64
*2405 FILLER_45_71
*2406 FILLER_45_78
*2407 FILLER_45_85
*2408 FILLER_45_92
*2409 FILLER_45_99
*2410 FILLER_46_0
*2411 FILLER_46_106
*2412 FILLER_46_113
*2413 FILLER_46_120
*2414 FILLER_46_127
*2415 FILLER_46_134
*2416 FILLER_46_141
*2417 FILLER_46_148
*2418 FILLER_46_155
*2419 FILLER_46_162
*2420 FILLER_46_169
*2421 FILLER_46_176
*2422 FILLER_46_183
*2423 FILLER_46_190
*2424 FILLER_46_197
*2425 FILLER_46_204
*2426 FILLER_46_211
*2427 FILLER_46_218
*2428 FILLER_46_22
*2429 FILLER_46_225
*2430 FILLER_46_232
*2431 FILLER_46_239
*2432 FILLER_46_246
*2433 FILLER_46_253
*2434 FILLER_46_260
*2435 FILLER_46_267
*2436 FILLER_46_274
*2437 FILLER_46_281
*2438 FILLER_46_288
*2439 FILLER_46_29
*2440 FILLER_46_295
*2441 FILLER_46_302
*2442 FILLER_46_309
*2443 FILLER_46_316
*2444 FILLER_46_323
*2445 FILLER_46_330
*2446 FILLER_46_337
*2447 FILLER_46_344
*2448 FILLER_46_351
*2449 FILLER_46_358
*2450 FILLER_46_36
*2451 FILLER_46_365
*2452 FILLER_46_372
*2453 FILLER_46_379
*2454 FILLER_46_386
*2455 FILLER_46_393
*2456 FILLER_46_400
*2457 FILLER_46_43
*2458 FILLER_46_50
*2459 FILLER_46_57
*2460 FILLER_46_64
*2461 FILLER_46_7
*2462 FILLER_46_71
*2463 FILLER_46_78
*2464 FILLER_46_85
*2465 FILLER_46_92
*2466 FILLER_46_99
*2467 FILLER_47_0
*2468 FILLER_47_105
*2469 FILLER_47_112
*2470 FILLER_47_119
*2471 FILLER_47_126
*2472 FILLER_47_133
*2473 FILLER_47_14
*2474 FILLER_47_140
*2475 FILLER_47_147
*2476 FILLER_47_154
*2477 FILLER_47_161
*2478 FILLER_47_168
*2479 FILLER_47_175
*2480 FILLER_47_182
*2481 FILLER_47_189
*2482 FILLER_47_196
*2483 FILLER_47_203
*2484 FILLER_47_21
*2485 FILLER_47_210
*2486 FILLER_47_217
*2487 FILLER_47_224
*2488 FILLER_47_231
*2489 FILLER_47_238
*2490 FILLER_47_245
*2491 FILLER_47_252
*2492 FILLER_47_259
*2493 FILLER_47_266
*2494 FILLER_47_273
*2495 FILLER_47_28
*2496 FILLER_47_280
*2497 FILLER_47_287
*2498 FILLER_47_294
*2499 FILLER_47_301
*2500 FILLER_47_308
*2501 FILLER_47_315
*2502 FILLER_47_322
*2503 FILLER_47_329
*2504 FILLER_47_336
*2505 FILLER_47_343
*2506 FILLER_47_35
*2507 FILLER_47_350
*2508 FILLER_47_357
*2509 FILLER_47_364
*2510 FILLER_47_371
*2511 FILLER_47_378
*2512 FILLER_47_385
*2513 FILLER_47_392
*2514 FILLER_47_399
*2515 FILLER_47_403
*2516 FILLER_47_42
*2517 FILLER_47_49
*2518 FILLER_47_56
*2519 FILLER_47_63
*2520 FILLER_47_7
*2521 FILLER_47_70
*2522 FILLER_47_77
*2523 FILLER_47_84
*2524 FILLER_47_91
*2525 FILLER_47_98
*2526 FILLER_48_0
*2527 FILLER_48_105
*2528 FILLER_48_112
*2529 FILLER_48_119
*2530 FILLER_48_126
*2531 FILLER_48_133
*2532 FILLER_48_14
*2533 FILLER_48_140
*2534 FILLER_48_147
*2535 FILLER_48_154
*2536 FILLER_48_161
*2537 FILLER_48_168
*2538 FILLER_48_175
*2539 FILLER_48_182
*2540 FILLER_48_189
*2541 FILLER_48_196
*2542 FILLER_48_203
*2543 FILLER_48_21
*2544 FILLER_48_210
*2545 FILLER_48_217
*2546 FILLER_48_224
*2547 FILLER_48_231
*2548 FILLER_48_238
*2549 FILLER_48_245
*2550 FILLER_48_252
*2551 FILLER_48_259
*2552 FILLER_48_266
*2553 FILLER_48_273
*2554 FILLER_48_28
*2555 FILLER_48_280
*2556 FILLER_48_287
*2557 FILLER_48_294
*2558 FILLER_48_301
*2559 FILLER_48_308
*2560 FILLER_48_315
*2561 FILLER_48_322
*2562 FILLER_48_329
*2563 FILLER_48_336
*2564 FILLER_48_343
*2565 FILLER_48_35
*2566 FILLER_48_350
*2567 FILLER_48_357
*2568 FILLER_48_364
*2569 FILLER_48_371
*2570 FILLER_48_378
*2571 FILLER_48_385
*2572 FILLER_48_392
*2573 FILLER_48_399
*2574 FILLER_48_403
*2575 FILLER_48_42
*2576 FILLER_48_49
*2577 FILLER_48_56
*2578 FILLER_48_63
*2579 FILLER_48_7
*2580 FILLER_48_70
*2581 FILLER_48_77
*2582 FILLER_48_84
*2583 FILLER_48_91
*2584 FILLER_48_98
*2585 FILLER_49_0
*2586 FILLER_49_105
*2587 FILLER_49_112
*2588 FILLER_49_119
*2589 FILLER_49_126
*2590 FILLER_49_133
*2591 FILLER_49_14
*2592 FILLER_49_140
*2593 FILLER_49_147
*2594 FILLER_49_154
*2595 FILLER_49_161
*2596 FILLER_49_168
*2597 FILLER_49_175
*2598 FILLER_49_182
*2599 FILLER_49_189
*2600 FILLER_49_196
*2601 FILLER_49_203
*2602 FILLER_49_21
*2603 FILLER_49_210
*2604 FILLER_49_217
*2605 FILLER_49_224
*2606 FILLER_49_231
*2607 FILLER_49_238
*2608 FILLER_49_245
*2609 FILLER_49_252
*2610 FILLER_49_259
*2611 FILLER_49_266
*2612 FILLER_49_273
*2613 FILLER_49_28
*2614 FILLER_49_280
*2615 FILLER_49_287
*2616 FILLER_49_294
*2617 FILLER_49_301
*2618 FILLER_49_308
*2619 FILLER_49_315
*2620 FILLER_49_322
*2621 FILLER_49_329
*2622 FILLER_49_336
*2623 FILLER_49_343
*2624 FILLER_49_35
*2625 FILLER_49_350
*2626 FILLER_49_357
*2627 FILLER_49_364
*2628 FILLER_49_371
*2629 FILLER_49_378
*2630 FILLER_49_385
*2631 FILLER_49_392
*2632 FILLER_49_399
*2633 FILLER_49_403
*2634 FILLER_49_42
*2635 FILLER_49_49
*2636 FILLER_49_56
*2637 FILLER_49_63
*2638 FILLER_49_7
*2639 FILLER_49_70
*2640 FILLER_49_77
*2641 FILLER_49_84
*2642 FILLER_49_91
*2643 FILLER_49_98
*2644 FILLER_4_102
*2645 FILLER_4_109
*2646 FILLER_4_11
*2647 FILLER_4_116
*2648 FILLER_4_123
*2649 FILLER_4_130
*2650 FILLER_4_137
*2651 FILLER_4_144
*2652 FILLER_4_151
*2653 FILLER_4_158
*2654 FILLER_4_165
*2655 FILLER_4_172
*2656 FILLER_4_179
*2657 FILLER_4_18
*2658 FILLER_4_186
*2659 FILLER_4_193
*2660 FILLER_4_200
*2661 FILLER_4_207
*2662 FILLER_4_214
*2663 FILLER_4_221
*2664 FILLER_4_228
*2665 FILLER_4_235
*2666 FILLER_4_242
*2667 FILLER_4_249
*2668 FILLER_4_25
*2669 FILLER_4_256
*2670 FILLER_4_263
*2671 FILLER_4_270
*2672 FILLER_4_277
*2673 FILLER_4_284
*2674 FILLER_4_291
*2675 FILLER_4_298
*2676 FILLER_4_305
*2677 FILLER_4_312
*2678 FILLER_4_319
*2679 FILLER_4_32
*2680 FILLER_4_326
*2681 FILLER_4_333
*2682 FILLER_4_340
*2683 FILLER_4_347
*2684 FILLER_4_354
*2685 FILLER_4_361
*2686 FILLER_4_368
*2687 FILLER_4_375
*2688 FILLER_4_382
*2689 FILLER_4_389
*2690 FILLER_4_39
*2691 FILLER_4_396
*2692 FILLER_4_4
*2693 FILLER_4_403
*2694 FILLER_4_46
*2695 FILLER_4_53
*2696 FILLER_4_60
*2697 FILLER_4_67
*2698 FILLER_4_74
*2699 FILLER_4_81
*2700 FILLER_4_88
*2701 FILLER_4_95
*2702 FILLER_5_102
*2703 FILLER_5_109
*2704 FILLER_5_11
*2705 FILLER_5_116
*2706 FILLER_5_123
*2707 FILLER_5_130
*2708 FILLER_5_137
*2709 FILLER_5_144
*2710 FILLER_5_151
*2711 FILLER_5_158
*2712 FILLER_5_165
*2713 FILLER_5_172
*2714 FILLER_5_179
*2715 FILLER_5_18
*2716 FILLER_5_186
*2717 FILLER_5_193
*2718 FILLER_5_200
*2719 FILLER_5_207
*2720 FILLER_5_214
*2721 FILLER_5_221
*2722 FILLER_5_228
*2723 FILLER_5_235
*2724 FILLER_5_242
*2725 FILLER_5_249
*2726 FILLER_5_25
*2727 FILLER_5_256
*2728 FILLER_5_263
*2729 FILLER_5_270
*2730 FILLER_5_277
*2731 FILLER_5_284
*2732 FILLER_5_291
*2733 FILLER_5_298
*2734 FILLER_5_305
*2735 FILLER_5_312
*2736 FILLER_5_319
*2737 FILLER_5_32
*2738 FILLER_5_326
*2739 FILLER_5_333
*2740 FILLER_5_340
*2741 FILLER_5_347
*2742 FILLER_5_354
*2743 FILLER_5_361
*2744 FILLER_5_368
*2745 FILLER_5_375
*2746 FILLER_5_382
*2747 FILLER_5_389
*2748 FILLER_5_39
*2749 FILLER_5_396
*2750 FILLER_5_4
*2751 FILLER_5_403
*2752 FILLER_5_46
*2753 FILLER_5_53
*2754 FILLER_5_60
*2755 FILLER_5_67
*2756 FILLER_5_74
*2757 FILLER_5_81
*2758 FILLER_5_88
*2759 FILLER_5_95
*2760 FILLER_6_102
*2761 FILLER_6_109
*2762 FILLER_6_11
*2763 FILLER_6_116
*2764 FILLER_6_123
*2765 FILLER_6_130
*2766 FILLER_6_137
*2767 FILLER_6_144
*2768 FILLER_6_151
*2769 FILLER_6_158
*2770 FILLER_6_165
*2771 FILLER_6_172
*2772 FILLER_6_179
*2773 FILLER_6_18
*2774 FILLER_6_186
*2775 FILLER_6_193
*2776 FILLER_6_200
*2777 FILLER_6_207
*2778 FILLER_6_214
*2779 FILLER_6_221
*2780 FILLER_6_228
*2781 FILLER_6_235
*2782 FILLER_6_242
*2783 FILLER_6_249
*2784 FILLER_6_25
*2785 FILLER_6_256
*2786 FILLER_6_263
*2787 FILLER_6_270
*2788 FILLER_6_277
*2789 FILLER_6_284
*2790 FILLER_6_291
*2791 FILLER_6_298
*2792 FILLER_6_305
*2793 FILLER_6_312
*2794 FILLER_6_319
*2795 FILLER_6_32
*2796 FILLER_6_326
*2797 FILLER_6_333
*2798 FILLER_6_340
*2799 FILLER_6_347
*2800 FILLER_6_354
*2801 FILLER_6_361
*2802 FILLER_6_368
*2803 FILLER_6_375
*2804 FILLER_6_382
*2805 FILLER_6_389
*2806 FILLER_6_39
*2807 FILLER_6_396
*2808 FILLER_6_4
*2809 FILLER_6_403
*2810 FILLER_6_46
*2811 FILLER_6_53
*2812 FILLER_6_60
*2813 FILLER_6_67
*2814 FILLER_6_74
*2815 FILLER_6_81
*2816 FILLER_6_88
*2817 FILLER_6_95
*2818 FILLER_7_0
*2819 FILLER_7_105
*2820 FILLER_7_112
*2821 FILLER_7_119
*2822 FILLER_7_126
*2823 FILLER_7_133
*2824 FILLER_7_14
*2825 FILLER_7_140
*2826 FILLER_7_147
*2827 FILLER_7_154
*2828 FILLER_7_161
*2829 FILLER_7_168
*2830 FILLER_7_175
*2831 FILLER_7_182
*2832 FILLER_7_189
*2833 FILLER_7_196
*2834 FILLER_7_203
*2835 FILLER_7_21
*2836 FILLER_7_210
*2837 FILLER_7_217
*2838 FILLER_7_224
*2839 FILLER_7_231
*2840 FILLER_7_238
*2841 FILLER_7_245
*2842 FILLER_7_252
*2843 FILLER_7_259
*2844 FILLER_7_266
*2845 FILLER_7_273
*2846 FILLER_7_28
*2847 FILLER_7_280
*2848 FILLER_7_287
*2849 FILLER_7_294
*2850 FILLER_7_301
*2851 FILLER_7_308
*2852 FILLER_7_315
*2853 FILLER_7_322
*2854 FILLER_7_329
*2855 FILLER_7_336
*2856 FILLER_7_343
*2857 FILLER_7_35
*2858 FILLER_7_350
*2859 FILLER_7_357
*2860 FILLER_7_364
*2861 FILLER_7_371
*2862 FILLER_7_378
*2863 FILLER_7_385
*2864 FILLER_7_392
*2865 FILLER_7_399
*2866 FILLER_7_403
*2867 FILLER_7_42
*2868 FILLER_7_49
*2869 FILLER_7_56
*2870 FILLER_7_63
*2871 FILLER_7_7
*2872 FILLER_7_70
*2873 FILLER_7_77
*2874 FILLER_7_84
*2875 FILLER_7_91
*2876 FILLER_7_98
*2877 FILLER_8_102
*2878 FILLER_8_109
*2879 FILLER_8_11
*2880 FILLER_8_116
*2881 FILLER_8_123
*2882 FILLER_8_130
*2883 FILLER_8_137
*2884 FILLER_8_144
*2885 FILLER_8_151
*2886 FILLER_8_158
*2887 FILLER_8_165
*2888 FILLER_8_172
*2889 FILLER_8_179
*2890 FILLER_8_18
*2891 FILLER_8_186
*2892 FILLER_8_193
*2893 FILLER_8_200
*2894 FILLER_8_207
*2895 FILLER_8_214
*2896 FILLER_8_221
*2897 FILLER_8_228
*2898 FILLER_8_235
*2899 FILLER_8_242
*2900 FILLER_8_249
*2901 FILLER_8_25
*2902 FILLER_8_256
*2903 FILLER_8_263
*2904 FILLER_8_270
*2905 FILLER_8_277
*2906 FILLER_8_284
*2907 FILLER_8_291
*2908 FILLER_8_298
*2909 FILLER_8_305
*2910 FILLER_8_312
*2911 FILLER_8_319
*2912 FILLER_8_32
*2913 FILLER_8_326
*2914 FILLER_8_333
*2915 FILLER_8_340
*2916 FILLER_8_347
*2917 FILLER_8_354
*2918 FILLER_8_361
*2919 FILLER_8_368
*2920 FILLER_8_375
*2921 FILLER_8_382
*2922 FILLER_8_389
*2923 FILLER_8_39
*2924 FILLER_8_396
*2925 FILLER_8_4
*2926 FILLER_8_403
*2927 FILLER_8_46
*2928 FILLER_8_53
*2929 FILLER_8_60
*2930 FILLER_8_67
*2931 FILLER_8_74
*2932 FILLER_8_81
*2933 FILLER_8_88
*2934 FILLER_8_95
*2935 FILLER_9_102
*2936 FILLER_9_109
*2937 FILLER_9_11
*2938 FILLER_9_116
*2939 FILLER_9_123
*2940 FILLER_9_130
*2941 FILLER_9_137
*2942 FILLER_9_144
*2943 FILLER_9_151
*2944 FILLER_9_158
*2945 FILLER_9_165
*2946 FILLER_9_172
*2947 FILLER_9_179
*2948 FILLER_9_18
*2949 FILLER_9_186
*2950 FILLER_9_193
*2951 FILLER_9_200
*2952 FILLER_9_207
*2953 FILLER_9_214
*2954 FILLER_9_221
*2955 FILLER_9_228
*2956 FILLER_9_235
*2957 FILLER_9_242
*2958 FILLER_9_249
*2959 FILLER_9_25
*2960 FILLER_9_256
*2961 FILLER_9_263
*2962 FILLER_9_270
*2963 FILLER_9_277
*2964 FILLER_9_284
*2965 FILLER_9_291
*2966 FILLER_9_298
*2967 FILLER_9_305
*2968 FILLER_9_312
*2969 FILLER_9_319
*2970 FILLER_9_32
*2971 FILLER_9_326
*2972 FILLER_9_333
*2973 FILLER_9_340
*2974 FILLER_9_347
*2975 FILLER_9_354
*2976 FILLER_9_361
*2977 FILLER_9_368
*2978 FILLER_9_375
*2979 FILLER_9_382
*2980 FILLER_9_389
*2981 FILLER_9_39
*2982 FILLER_9_396
*2983 FILLER_9_4
*2984 FILLER_9_403
*2985 FILLER_9_46
*2986 FILLER_9_53
*2987 FILLER_9_60
*2988 FILLER_9_67
*2989 FILLER_9_74
*2990 FILLER_9_81
*2991 FILLER_9_88
*2992 FILLER_9_95
*2993 _29_
*2994 _30_
*2995 _31_
*2996 _32_
*2997 _33_
*2998 _34_
*2999 _35_
*3000 _36_
*3001 _37_
*3002 _38_
*3003 _39_
*3004 _40_
*3005 _41_
*3006 _42_
*3007 _43_
*3008 _44_
*3009 _45_
*3010 _46_
*3011 _47_
*3012 _48_
*3013 _49_
*3014 _50_
*3015 _51_
*3016 _52_
*3017 _53_
*3018 _54_
*3019 _55_
*3020 _56_
*3021 _57_
*3022 _58_
*3023 _59_
*3024 _60_
*3025 _61_
*3026 _62_
*3027 _63_
*3028 _64_
*3029 _65_
*3030 heichips26_example_tiny
*3031 heichips26_example_tiny_25
*3032 heichips26_example_tiny_26
*3033 heichips26_example_tiny_27
*3034 heichips26_example_tiny_28
*3035 heichips26_example_tiny_29
*3036 heichips26_example_tiny_30
*3037 heichips26_example_tiny_31
*3038 heichips26_example_tiny_32
*3039 heichips26_example_tiny_33
*3040 heichips26_example_tiny_34
*3041 heichips26_example_tiny_35
*3042 heichips26_example_tiny_36
*3043 heichips26_example_tiny_37
*3044 heichips26_example_tiny_38
*3045 heichips26_example_tiny_39
*3046 input1
*3047 input10
*3048 input11
*3049 input12
*3050 input13
*3051 input14
*3052 input15
*3053 input16
*3054 input2
*3055 input3
*3056 input4
*3057 input5
*3058 input6
*3059 input7
*3060 input8
*3061 input9
*3062 output17
*3063 output18
*3064 output19
*3065 output20
*3066 output21
*3067 output22
*3068 output23
*3069 output24

*PORTS
clk I
ena I
rst_n I
ui_in[0] I
ui_in[1] I
ui_in[2] I
ui_in[3] I
ui_in[4] I
ui_in[5] I
ui_in[6] I
ui_in[7] I
uio_in[0] I
uio_in[1] I
uio_in[2] I
uio_in[3] I
uio_in[4] I
uio_in[5] I
uio_in[6] I
uio_in[7] I
uio_oe[0] O
uio_oe[1] O
uio_oe[2] O
uio_oe[3] O
uio_oe[4] O
uio_oe[5] O
uio_oe[6] O
uio_oe[7] O
uio_out[0] O
uio_out[1] O
uio_out[2] O
uio_out[3] O
uio_out[4] O
uio_out[5] O
uio_out[6] O
uio_out[7] O
uo_out[0] O
uo_out[1] O
uo_out[2] O
uo_out[3] O
uo_out[4] O
uo_out[5] O
uo_out[6] O
uo_out[7] O

*D_NET *6 0.000581483
*CONN
*P ui_in[0] I
*I *3046:A I *D sg13cmos5l_buf_1
*CAP
1 ui_in[0] 0.000290741
2 *3046:A 0.000290741
3 *3046:A uio_oe[7] 0
4 *3046:A *3054:A 0
5 *3046:A *92:10 0
*RES
1 ui_in[0] *3046:A 43.296 
*END

*D_NET *7 0.000586083
*CONN
*P ui_in[1] I
*I *3054:A I *D sg13cmos5l_buf_1
*CAP
1 ui_in[1] 0.000293042
2 *3054:A 0.000293042
3 *3054:A *3055:A 0
4 *3054:A *92:10 0
5 *3046:A *3054:A 0
*RES
1 ui_in[1] *3054:A 43.296 
*END

*D_NET *8 0.000514953
*CONN
*P ui_in[2] I
*I *3055:A I *D sg13cmos5l_buf_1
*CAP
1 ui_in[2] 0.000257476
2 *3055:A 0.000257476
3 *3055:A *3056:A 0
4 *3055:A *78:12 0
5 *3055:A *92:10 0
6 *3055:A *93:8 0
7 *3054:A *3055:A 0
*RES
1 ui_in[2] *3055:A 42.8634 
*END

*D_NET *9 0.0005137
*CONN
*P ui_in[3] I
*I *3056:A I *D sg13cmos5l_buf_1
*CAP
1 ui_in[3] 0.00025685
2 *3056:A 0.00025685
3 *3056:A *3057:A 0
4 *3056:A *78:12 0
5 *3056:A *93:8 0
6 *3056:A *98:10 0
7 *3055:A *3056:A 0
*RES
1 ui_in[3] *3056:A 42.8634 
*END

*D_NET *10 0.000409159
*CONN
*P ui_in[4] I
*I *3057:A I *D sg13cmos5l_buf_1
*CAP
1 ui_in[4] 0.000204579
2 *3057:A 0.000204579
3 *3057:A *3058:A 0
4 *3057:A *98:10 0
5 *3056:A *3057:A 0
*RES
1 ui_in[4] *3057:A 42.4308 
*END

*D_NET *11 0.000476102
*CONN
*P ui_in[5] I
*I *3058:A I *D sg13cmos5l_buf_1
*CAP
1 ui_in[5] 0.000197867
2 *3058:A 0.000197867
3 *3058:A *3059:A 0
4 *3058:A *76:10 8.03692e-05
5 *3058:A *94:12 0
6 *3057:A *3058:A 0
*RES
1 ui_in[5] *3058:A 42.4308 
*END

*D_NET *12 0.0003094
*CONN
*P ui_in[6] I
*I *3059:A I *D sg13cmos5l_buf_1
*CAP
1 ui_in[6] 0.0001547
2 *3059:A 0.0001547
3 *3059:A *3060:A 0
4 *3058:A *3059:A 0
*RES
1 ui_in[6] *3059:A 41.9982 
*END

*D_NET *13 0.000304771
*CONN
*P ui_in[7] I
*I *3060:A I *D sg13cmos5l_buf_1
*CAP
1 ui_in[7] 0.000152385
2 *3060:A 0.000152385
3 *3060:A *3061:A 0
4 *3059:A *3060:A 0
*RES
1 ui_in[7] *3060:A 41.9982 
*END

*D_NET *14 0.000912384
*CONN
*P uio_in[0] I
*I *3061:A I *D sg13cmos5l_buf_1
*CAP
1 uio_in[0] 0.000302617
2 *3061:A 0.000302617
3 *3061:A *3047:A 0
4 *3061:A *76:10 0.00030715
5 *3060:A *3061:A 0
*RES
1 uio_in[0] *3061:A 43.7286 
*END

*D_NET *15 0.000709419
*CONN
*P uio_in[1] I
*I *3047:A I *D sg13cmos5l_buf_1
*CAP
1 uio_in[1] 0.000274511
2 *3047:A 0.000274511
3 *3047:A *3048:A 0
4 *3047:A *76:10 0.000144942
5 *3047:A *79:12 1.54556e-05
6 *3047:A *95:12 0
7 *3061:A *3047:A 0
*RES
1 uio_in[1] *3047:A 43.399 
*END

*D_NET *16 0.000784113
*CONN
*P uio_in[2] I
*I *3048:A I *D sg13cmos5l_buf_1
*CAP
1 uio_in[2] 0.000270971
2 *3048:A 0.000270971
3 *3048:A *3049:A 0
4 *3048:A *79:12 0.00024217
5 *3047:A *3048:A 0
*RES
1 uio_in[2] *3048:A 43.296 
*END

*D_NET *17 0.00066253
*CONN
*P uio_in[3] I
*I *3049:A I *D sg13cmos5l_buf_1
*CAP
1 uio_in[3] 0.000242966
2 *3049:A 0.000242966
3 *3049:A *3050:A 0
4 *3049:A *79:12 0.000176597
5 *3048:A *3049:A 0
*RES
1 uio_in[3] *3049:A 42.8634 
*END

*D_NET *18 0.000554838
*CONN
*P uio_in[4] I
*I *3050:A I *D sg13cmos5l_buf_1
*CAP
1 uio_in[4] 0.000237567
2 *3050:A 0.000237567
3 *3050:A *3051:A 0
4 *3050:A *79:12 7.9703e-05
5 *3050:A *97:16 0
6 *3049:A *3050:A 0
*RES
1 uio_in[4] *3050:A 42.8634 
*END

*D_NET *19 0.000396694
*CONN
*P uio_in[5] I
*I *3051:A I *D sg13cmos5l_buf_1
*CAP
1 uio_in[5] 0.000198347
2 *3051:A 0.000198347
3 *3051:A *3052:A 0
4 *3051:A *97:16 0
5 *3050:A *3051:A 0
*RES
1 uio_in[5] *3051:A 42.4308 
*END

*D_NET *20 0.000402312
*CONN
*P uio_in[6] I
*I *3052:A I *D sg13cmos5l_buf_1
*CAP
1 uio_in[6] 0.000201156
2 *3052:A 0.000201156
3 *3052:A *3053:A 0
4 *3052:A *97:16 0
5 *3051:A *3052:A 0
*RES
1 uio_in[6] *3052:A 42.4308 
*END

*D_NET *21 0.000308435
*CONN
*P uio_in[7] I
*I *3053:A I *D sg13cmos5l_buf_1
*CAP
1 uio_in[7] 0.000154218
2 *3053:A 0.000154218
3 *3052:A *3053:A 0
*RES
1 uio_in[7] *3053:A 41.9982 
*END

*D_NET *22 0.000455099
*CONN
*P uio_oe[0] O
*I *3030:L_LO O *D sg13cmos5l_tielo
*CAP
1 uio_oe[0] 0.000219849
2 *3030:L_LO 0.000219849
3 uio_oe[0] uio_oe[1] 0
4 uio_oe[0] uio_out[7] 1.54008e-05
5 uio_oe[0] *85:14 0
*RES
1 *3030:L_LO uio_oe[0] 42.7501 
*END

*D_NET *23 0.000615822
*CONN
*P uio_oe[1] O
*I *3031:L_LO O *D sg13cmos5l_tielo
*CAP
1 uio_oe[1] 0.000307911
2 *3031:L_LO 0.000307911
3 uio_oe[1] uio_oe[2] 0
4 uio_oe[1] *85:14 0
5 uio_oe[0] uio_oe[1] 0
*RES
1 *3031:L_LO uio_oe[1] 43.5123 
*END

*D_NET *24 0.000389825
*CONN
*P uio_oe[2] O
*I *3032:L_LO O *D sg13cmos5l_tielo
*CAP
1 uio_oe[2] 0.000194913
2 *3032:L_LO 0.000194913
3 uio_oe[2] uio_oe[3] 0
4 uio_oe[2] *85:14 0
5 uio_oe[1] uio_oe[2] 0
*RES
1 *3032:L_LO uio_oe[2] 42.2145 
*END

*D_NET *25 0.000513898
*CONN
*P uio_oe[3] O
*I *3033:L_LO O *D sg13cmos5l_tielo
*CAP
1 uio_oe[3] 0.000256949
2 *3033:L_LO 0.000256949
3 uio_oe[3] uio_oe[4] 0
4 uio_oe[3] *91:8 0
5 uio_oe[2] uio_oe[3] 0
*RES
1 *3033:L_LO uio_oe[3] 43.0797 
*END

*D_NET *26 0.000260043
*CONN
*P uio_oe[4] O
*I *3034:L_LO O *D sg13cmos5l_tielo
*CAP
1 uio_oe[4] 0.000130021
2 *3034:L_LO 0.000130021
3 uio_oe[4] uio_oe[5] 0
4 uio_oe[3] uio_oe[4] 0
*RES
1 *3034:L_LO uio_oe[4] 41.6789 
*END

*D_NET *27 0.00042535
*CONN
*P uio_oe[5] O
*I *3035:L_LO O *D sg13cmos5l_tielo
*CAP
1 uio_oe[5] 0.000212675
2 *3035:L_LO 0.000212675
3 uio_oe[5] uio_oe[6] 0
4 uio_oe[5] *91:8 0
5 uio_oe[4] uio_oe[5] 0
*RES
1 *3035:L_LO uio_oe[5] 42.6471 
*END

*D_NET *28 0.000369749
*CONN
*P uio_oe[6] O
*I *3036:L_LO O *D sg13cmos5l_tielo
*CAP
1 uio_oe[6] 0.000184874
2 *3036:L_LO 0.000184874
3 uio_oe[6] uio_oe[7] 0
4 uio_oe[6] *91:8 0
5 uio_oe[5] uio_oe[6] 0
*RES
1 *3036:L_LO uio_oe[6] 42.2145 
*END

*D_NET *29 0.0005517
*CONN
*P uio_oe[7] O
*I *3037:L_LO O *D sg13cmos5l_tielo
*CAP
1 uio_oe[7] 0.00027585
2 *3037:L_LO 0.00027585
3 uio_oe[7] *92:10 0
4 uio_oe[6] uio_oe[7] 0
5 *3046:A uio_oe[7] 0
*RES
1 *3037:L_LO uio_oe[7] 43.0797 
*END

*D_NET *30 0.000605393
*CONN
*P uio_out[0] O
*I *3038:L_LO O *D sg13cmos5l_tielo
*CAP
1 uio_out[0] 0.000302697
2 *3038:L_LO 0.000302697
3 uio_out[0] uio_out[1] 0
4 uio_out[0] uo_out[7] 0
5 uio_out[0] *87:16 0
*RES
1 *3038:L_LO uio_out[0] 43.5123 
*END

*D_NET *31 0.000384979
*CONN
*P uio_out[1] O
*I *3039:L_LO O *D sg13cmos5l_tielo
*CAP
1 uio_out[1] 0.000192489
2 *3039:L_LO 0.000192489
3 uio_out[1] uio_out[2] 0
4 uio_out[1] *87:16 0
5 uio_out[0] uio_out[1] 0
*RES
1 *3039:L_LO uio_out[1] 42.2145 
*END

*D_NET *32 0.000523001
*CONN
*P uio_out[2] O
*I *3040:L_LO O *D sg13cmos5l_tielo
*CAP
1 uio_out[2] 0.0002615
2 *3040:L_LO 0.0002615
3 uio_out[2] uio_out[3] 0
4 uio_out[2] *87:16 0
5 uio_out[1] uio_out[2] 0
*RES
1 *3040:L_LO uio_out[2] 43.0797 
*END

*D_NET *33 0.000260043
*CONN
*P uio_out[3] O
*I *3041:L_LO O *D sg13cmos5l_tielo
*CAP
1 uio_out[3] 0.000130021
2 *3041:L_LO 0.000130021
3 uio_out[3] uio_out[4] 0
4 uio_out[2] uio_out[3] 0
*RES
1 *3041:L_LO uio_out[3] 41.6789 
*END

*D_NET *34 0.000435089
*CONN
*P uio_out[4] O
*I *3042:L_LO O *D sg13cmos5l_tielo
*CAP
1 uio_out[4] 0.000217544
2 *3042:L_LO 0.000217544
3 uio_out[4] uio_out[5] 0
4 uio_out[4] *87:16 0
5 uio_out[3] uio_out[4] 0
*RES
1 *3042:L_LO uio_out[4] 42.6471 
*END

*D_NET *35 0.000365245
*CONN
*P uio_out[5] O
*I *3043:L_LO O *D sg13cmos5l_tielo
*CAP
1 uio_out[5] 0.000182622
2 *3043:L_LO 0.000182622
3 uio_out[5] uio_out[6] 0
4 uio_out[5] *87:16 0
5 uio_out[4] uio_out[5] 0
*RES
1 *3043:L_LO uio_out[5] 42.2145 
*END

*D_NET *36 0.000547423
*CONN
*P uio_out[6] O
*I *3044:L_LO O *D sg13cmos5l_tielo
*CAP
1 uio_out[6] 0.000273712
2 *3044:L_LO 0.000273712
3 uio_out[6] uio_out[7] 0
4 uio_out[6] *85:14 0
5 uio_out[6] *87:16 0
6 uio_out[5] uio_out[6] 0
*RES
1 *3044:L_LO uio_out[6] 43.0797 
*END

*D_NET *37 0.000686483
*CONN
*P uio_out[7] O
*I *3045:L_LO O *D sg13cmos5l_tielo
*CAP
1 uio_out[7] 0.000335541
2 *3045:L_LO 0.000335541
3 uio_out[7] *85:14 0
4 uio_oe[0] uio_out[7] 1.54008e-05
5 uio_out[6] uio_out[7] 0
*RES
1 *3045:L_LO uio_out[7] 43.9449 
*END

*D_NET *38 0.000388971
*CONN
*P uo_out[0] O
*I *3062:X O *D sg13cmos5l_buf_1
*CAP
1 uo_out[0] 0.000194486
2 *3062:X 0.000194486
3 uo_out[0] uo_out[1] 0
*RES
1 *3062:X uo_out[0] 42.2145 
*END

*D_NET *39 0.000308435
*CONN
*P uo_out[1] O
*I *3063:X O *D sg13cmos5l_buf_1
*CAP
1 uo_out[1] 0.000154218
2 *3063:X 0.000154218
3 uo_out[1] uo_out[2] 0
4 uo_out[0] uo_out[1] 0
*RES
1 *3063:X uo_out[1] 41.9982 
*END

*D_NET *40 0.00025445
*CONN
*P uo_out[2] O
*I *3064:X O *D sg13cmos5l_buf_1
*CAP
1 uo_out[2] 0.000127225
2 *3064:X 0.000127225
3 uo_out[2] uo_out[3] 0
4 uo_out[1] uo_out[2] 0
*RES
1 *3064:X uo_out[2] 41.6789 
*END

*D_NET *41 0.00025445
*CONN
*P uo_out[3] O
*I *3065:X O *D sg13cmos5l_buf_1
*CAP
1 uo_out[3] 0.000127225
2 *3065:X 0.000127225
3 uo_out[3] uo_out[4] 0
4 uo_out[2] uo_out[3] 0
*RES
1 *3065:X uo_out[3] 41.6789 
*END

*D_NET *42 0.0003623
*CONN
*P uo_out[4] O
*I *3066:X O *D sg13cmos5l_buf_1
*CAP
1 uo_out[4] 0.00018115
2 *3066:X 0.00018115
3 uo_out[4] uo_out[5] 0
4 uo_out[4] *87:16 0
5 uo_out[3] uo_out[4] 0
*RES
1 *3066:X uo_out[4] 42.2145 
*END

*D_NET *43 0.000546402
*CONN
*P uo_out[5] O
*I *3067:X O *D sg13cmos5l_buf_1
*CAP
1 uo_out[5] 0.000273201
2 *3067:X 0.000273201
3 uo_out[5] uo_out[6] 0
4 uo_out[5] *87:16 0
5 uo_out[4] uo_out[5] 0
*RES
1 *3067:X uo_out[5] 43.0797 
*END

*D_NET *44 0.000511321
*CONN
*P uo_out[6] O
*I *3068:X O *D sg13cmos5l_buf_1
*CAP
1 uo_out[6] 0.000255661
2 *3068:X 0.000255661
3 uo_out[6] uo_out[7] 0
4 uo_out[6] *87:16 0
5 uo_out[5] uo_out[6] 0
*RES
1 *3068:X uo_out[6] 42.8634 
*END

*D_NET *45 0.00047624
*CONN
*P uo_out[7] O
*I *3069:X O *D sg13cmos5l_buf_1
*CAP
1 uo_out[7] 0.00023812
2 *3069:X 0.00023812
3 uo_out[7] *87:16 0
4 uio_out[0] uo_out[7] 0
5 uo_out[6] uo_out[7] 0
*RES
1 *3069:X uo_out[7] 42.6471 
*END

*D_NET *46 0.00165893
*CONN
*I *2998:A1 I *D sg13cmos5l_a21oi_1
*I *2997:A I *D sg13cmos5l_xor2_1
*I *2993:X O *D sg13cmos5l_and2_1
*CAP
1 *2998:A1 0.000154818
2 *2997:A 0
3 *2993:X 0.000365722
4 *46:16 0.000277831
5 *46:10 0.000488735
6 *2998:A1 *2998:B1 0
7 *2998:A1 *48:8 0
8 *46:10 *47:10 0
9 *46:10 *48:14 0
10 *46:10 *84:8 0.000371824
11 *46:10 *93:14 0
12 *46:16 *49:8 0
13 *46:16 *84:8 0
14 *46:16 *98:18 0
*RES
1 *2993:X *46:10 44.0685 
2 *46:10 *46:16 21.3184 
3 *46:16 *2997:A 20 
4 *46:16 *2998:A1 21.9158 
*END

*D_NET *47 0.00217795
*CONN
*I *2998:B1 I *D sg13cmos5l_a21oi_1
*I *2995:X O *D sg13cmos5l_and2_1
*CAP
1 *2998:B1 3.41007e-05
2 *2995:X 0.000622381
3 *47:10 0.000656482
4 *47:10 *48:8 0
5 *47:10 *48:14 0.000288233
6 *47:10 *90:8 0.000501627
7 *47:10 *93:14 0
8 *47:10 *98:18 7.51285e-05
9 *2998:A1 *2998:B1 0
10 *46:10 *47:10 0
*RES
1 *2995:X *47:10 47.4057 
2 *47:10 *2998:B1 40.3193 
*END

*D_NET *48 0.00119758
*CONN
*I *2997:B I *D sg13cmos5l_xor2_1
*I *2998:A2 I *D sg13cmos5l_a21oi_1
*I *2996:X O *D sg13cmos5l_xor2_1
*CAP
1 *2997:B 0
2 *2998:A2 0
3 *2996:X 0.000359652
4 *48:14 9.50226e-05
5 *48:8 0.000454674
6 *48:8 *90:8 0
7 *48:14 *93:14 0
8 *2998:A1 *48:8 0
9 *46:10 *48:14 0
10 *47:10 *48:8 0
11 *47:10 *48:14 0.000288233
*RES
1 *2996:X *48:8 23.914 
2 *48:8 *48:14 41.339 
3 *48:14 *2998:A2 20 
4 *48:8 *2997:B 20 
*END

*D_NET *49 0.0060433
*CONN
*I *3010:A1 I *D sg13cmos5l_o21ai_1
*I *3001:A I *D sg13cmos5l_nor2_1
*I *3002:A I *D sg13cmos5l_xor2_1
*I *2998:Y O *D sg13cmos5l_a21oi_1
*CAP
1 *3010:A1 0.000163987
2 *3001:A 0
3 *3002:A 0
4 *2998:Y 0.000507863
5 *49:22 0.000605657
6 *49:14 0.00172338
7 *49:10 0.0017906
8 *49:8 0.00101676
9 *3010:A1 *78:16 0
10 *49:8 *98:26 0
11 *49:10 *77:18 0.000235055
12 *49:10 *78:16 0
13 *49:14 *89:12 0
14 *49:22 *51:19 0
15 *49:22 *89:12 0
16 *46:16 *49:8 0
*RES
1 *2998:Y *49:8 45.2942 
2 *49:8 *49:10 6.7774 
3 *49:10 *49:14 31.7832 
4 *49:14 *49:22 47.313 
5 *49:22 *3002:A 20 
6 *49:14 *3001:A 20 
7 *49:10 *3010:A1 41.8334 
*END

*D_NET *50 0.00479838
*CONN
*I *3009:A1 I *D sg13cmos5l_a21oi_1
*I *3006:A I *D sg13cmos5l_nor2_1
*I *2999:X O *D sg13cmos5l_and2_1
*CAP
1 *3009:A1 0.000767805
2 *3006:A 0.000591552
3 *2999:X 0.000505755
4 *50:10 0.00186511
5 *3006:A *3007:A 0
6 *3006:A *55:8 0
7 *3006:A *88:6 0.0010527
8 *3009:A1 *3009:A2 1.54556e-05
9 *3009:A1 *57:10 0
10 *50:10 *77:20 0
*RES
1 *2999:X *50:10 46.0461 
2 *50:10 *3006:A 47.0246 
3 *50:10 *3009:A1 48.9198 
*END

*D_NET *51 0.00412437
*CONN
*I *3008:A_N I *D sg13cmos5l_nand2b_1
*I *3001:B I *D sg13cmos5l_nor2_1
*I *3002:B I *D sg13cmos5l_xor2_1
*I *3000:Y O *D sg13cmos5l_xnor2_1
*CAP
1 *3008:A_N 0.000709843
2 *3001:B 0
3 *3002:B 0.000200873
4 *3000:Y 0.000565096
5 *51:19 0.00119432
6 *51:8 0.00125045
7 *3008:A_N *3007:A 0
8 *3008:A_N *52:8 0.000128247
9 *3008:A_N *56:8 0
10 *51:8 *2999:A 0
11 *51:19 *52:8 7.55443e-05
12 *49:22 *51:19 0
*RES
1 *3000:Y *51:8 26.1388 
2 *51:8 *3002:B 22.266 
3 *51:8 *51:19 26.283 
4 *51:19 *3001:B 40 
5 *51:19 *3008:A_N 46.8186 
*END

*D_NET *52 0.000465106
*CONN
*I *3006:B I *D sg13cmos5l_nor2_1
*I *3001:Y O *D sg13cmos5l_nor2_1
*CAP
1 *3006:B 2.60565e-05
2 *3001:Y 5.68587e-05
3 *52:8 8.29152e-05
4 *3006:B *88:6 4.77425e-05
5 *3006:B *89:12 4.77425e-05
6 *3008:A_N *52:8 0.000128247
7 *51:19 *52:8 7.55443e-05
*RES
1 *3001:Y *52:8 40.8446 
2 *52:8 *3006:B 40.3193 
*END

*D_NET *53 0.000453429
*CONN
*I *3009:A2 I *D sg13cmos5l_a21oi_1
*I *3003:X O *D sg13cmos5l_or2_1
*CAP
1 *3009:A2 0.000218987
2 *3003:X 0.000218987
3 *3009:A2 *3005:A 0
4 *3009:A2 *54:12 0
5 *3009:A1 *3009:A2 1.54556e-05
*RES
1 *3003:X *3009:A2 42.4926 
*END

*D_NET *54 0.000976159
*CONN
*I *3009:B1 I *D sg13cmos5l_a21oi_1
*I *3004:X O *D sg13cmos5l_and2_1
*CAP
1 *3009:B1 0
2 *3004:X 0.000271531
3 *54:12 0.000271531
4 *54:12 *3003:B 0
5 *54:12 *3005:B 0.000144924
6 *54:12 *3005:A 0
7 *54:12 *57:10 0
8 *54:12 *58:12 0.000288173
9 *3009:A2 *54:12 0
*RES
1 *3004:X *54:12 43.09 
2 *54:12 *3009:B1 40 
*END

*D_NET *55 0.00259827
*CONN
*I *3008:B I *D sg13cmos5l_nand2b_1
*I *3007:A I *D sg13cmos5l_xnor2_1
*I *3005:X O *D sg13cmos5l_xor2_1
*CAP
1 *3008:B 0
2 *3007:A 0.000423809
3 *3005:X 0.000788779
4 *55:21 7.88446e-05
5 *55:8 0.00129143
6 *3007:A *3007:B 1.54008e-05
7 *55:8 *3004:B 0
8 *55:8 *3005:B 0
9 *55:8 *3010:A2 0
10 *55:8 *57:10 0
11 *55:8 *88:6 0
12 *3006:A *3007:A 0
13 *3006:A *55:8 0
14 *3008:A_N *3007:A 0
*RES
1 *3005:X *55:8 28.7035 
2 *55:8 *3007:A 23.9964 
3 *55:8 *55:21 40.8446 
4 *55:21 *3008:B 20 
*END

*D_NET *56 0.000458905
*CONN
*I *3007:B I *D sg13cmos5l_xnor2_1
*I *3006:Y O *D sg13cmos5l_nor2_1
*CAP
1 *3007:B 4.9287e-05
2 *3006:Y 0.000172465
3 *56:8 0.000221752
4 *3007:B *88:6 0
5 *3007:A *3007:B 1.54008e-05
6 *3008:A_N *56:8 0
*RES
1 *3006:Y *56:8 41.5862 
2 *56:8 *3007:B 40.5356 
*END

*D_NET *57 0.00180225
*CONN
*I *3010:A2 I *D sg13cmos5l_o21ai_1
*I *3008:Y O *D sg13cmos5l_nand2b_1
*CAP
1 *3010:A2 5.46802e-05
2 *3008:Y 0.000846446
3 *57:10 0.000901127
4 *3010:A2 *88:6 0
5 *57:10 *58:12 0
6 *3009:A1 *57:10 0
7 *54:12 *57:10 0
8 *55:8 *3010:A2 0
9 *55:8 *57:10 0
*RES
1 *3008:Y *57:10 49.1052 
2 *57:10 *3010:A2 40.5356 
*END

*D_NET *58 0.000860162
*CONN
*I *3010:B1 I *D sg13cmos5l_o21ai_1
*I *3009:Y O *D sg13cmos5l_a21oi_1
*CAP
1 *3010:B1 0
2 *3009:Y 0.000285994
3 *58:12 0.000285994
4 *58:12 *78:16 0
5 *58:12 *78:27 0
6 *54:12 *58:12 0.000288173
7 *57:10 *58:12 0
*RES
1 *3009:Y *58:12 43.4917 
2 *58:12 *3010:B1 40 
*END

*D_NET *59 0.00536708
*CONN
*I *3022:B1 I *D sg13cmos5l_a221oi_1
*I *3014:A I *D sg13cmos5l_nand2_1
*I *3015:A I *D sg13cmos5l_xnor2_1
*I *3010:Y O *D sg13cmos5l_o21ai_1
*CAP
1 *3022:B1 0.000747618
2 *3014:A 0
3 *3015:A 0
4 *3010:Y 0.000927311
5 *59:15 0.00111435
6 *59:8 0.00129405
7 *3022:B1 *3018:A 0
8 *3022:B1 *3018:B 0
9 *3022:B1 *3020:A 0.000825367
10 *3022:B1 *3021:A 0
11 *3022:B1 *3022:B2 0
12 *3022:B1 *3022:A1 1.54556e-05
13 *3022:B1 *65:8 0
14 *3022:B1 *69:8 0.000209747
15 *59:8 *3004:A 0
16 *59:8 *3004:B 0
17 *59:8 *3005:B 0
18 *59:8 *3015:B 1.54556e-05
19 *59:8 *88:6 0
20 *59:8 *89:12 0
21 *59:8 *93:14 0
22 *59:8 *93:16 0
23 *59:15 *3015:B 0.000217727
24 *59:15 *3018:B 0
25 *59:15 *3019:B 0
*RES
1 *3010:Y *59:8 29.785 
2 *59:8 *3015:A 20 
3 *59:8 *59:15 3.9964 
4 *59:15 *3014:A 20 
5 *59:15 *3022:B1 28.5902 
*END

*D_NET *60 0.00382838
*CONN
*I *3018:A I *D sg13cmos5l_nand2_1
*I *3021:A I *D sg13cmos5l_nor2_1
*I *3011:Y O *D sg13cmos5l_nand2_1
*CAP
1 *3018:A 0.000366946
2 *3021:A 0.000575209
3 *3011:Y 0
4 *60:8 0.00184185
5 *60:6 0.000899692
6 *3018:A *3014:B 0
7 *3018:A *3018:B 0
8 *3018:A *3019:A 0
9 *3018:A *3020:A 0.000144691
10 *3018:A *62:24 0
11 *3021:A *3021:B 0
12 *3021:A *3022:B2 0
13 *3021:A *3022:C1 0
14 *60:8 *3014:B 0
15 *60:8 *61:10 0
16 *60:8 *94:22 0
17 *3022:B1 *3018:A 0
18 *3022:B1 *3021:A 0
*RES
1 *3011:Y *60:6 40 
2 *60:6 *60:8 10.7326 
3 *60:8 *3021:A 46.3757 
4 *60:8 *3018:A 43.8857 
*END

*D_NET *61 0.00201294
*CONN
*I *3014:B I *D sg13cmos5l_nand2_1
*I *3013:A I *D sg13cmos5l_inv_1
*I *3012:X O *D sg13cmos5l_xor2_1
*CAP
1 *3014:B 7.15132e-05
2 *3013:A 0
3 *3012:X 0.000238841
4 *61:10 0.000767631
5 *61:8 0.000934959
6 *3014:B *62:24 0
7 *3014:B *89:8 0
8 *61:8 *96:12 0
9 *3018:A *3014:B 0
10 *60:8 *3014:B 0
11 *60:8 *61:10 0
*RES
1 *3012:X *61:8 42.4823 
2 *61:8 *61:10 8.755 
3 *61:10 *3013:A 40 
4 *61:10 *3014:B 40.8446 
*END

*D_NET *62 0.00333156
*CONN
*I *3020:A I *D sg13cmos5l_nor2_1
*I *3015:B I *D sg13cmos5l_xnor2_1
*I *3013:Y O *D sg13cmos5l_inv_1
*CAP
1 *3020:A 0.000486571
2 *3015:B 0.000387226
3 *3013:Y 0.000565253
4 *62:24 0.000664598
5 *3015:B *89:12 2.46687e-05
6 *3020:A *3019:A 0
7 *62:24 *63:8 0
8 *3014:B *62:24 0
9 *3018:A *3020:A 0.000144691
10 *3018:A *62:24 0
11 *3022:B1 *3020:A 0.000825367
12 *59:8 *3015:B 1.54556e-05
13 *59:15 *3015:B 0.000217727
*RES
1 *3013:Y *3015:B 44.5114 
2 *3013:Y *62:24 41.8334 
3 *62:24 *3020:A 45.5105 
*END

*D_NET *63 0.000260837
*CONN
*I *3018:B I *D sg13cmos5l_nand2_1
*I *3014:Y O *D sg13cmos5l_nand2_1
*CAP
1 *3018:B 4.2652e-05
2 *3014:Y 8.00659e-05
3 *63:8 0.000122718
4 *3018:B *3019:B 1.54008e-05
5 *63:8 *89:8 0
6 *3018:A *3018:B 0
7 *3022:B1 *3018:B 0
8 *59:15 *3018:B 0
9 *62:24 *63:8 0
*RES
1 *3014:Y *63:8 40.8446 
2 *63:8 *3018:B 40.3193 
*END

*D_NET *64 0.000439572
*CONN
*I *3021:B I *D sg13cmos5l_nor2_1
*I *3016:Y O *D sg13cmos5l_nor2_1
*CAP
1 *3021:B 0.00018835
2 *3016:Y 0.00018835
3 *3021:B *3016:B 4.74163e-05
4 *3021:B *3022:C1 1.54556e-05
5 *3021:B *3022:A1 0
6 *3021:A *3021:B 0
*RES
1 *3016:Y *3021:B 41.9673 
*END

*D_NET *65 0.00240461
*CONN
*I *3019:A I *D sg13cmos5l_xnor2_1
*I *3020:B I *D sg13cmos5l_nor2_1
*I *3017:Y O *D sg13cmos5l_xnor2_1
*CAP
1 *3019:A 0.000764137
2 *3020:B 2.77263e-05
3 *3017:Y 0.000330764
4 *65:8 0.00112263
5 *3019:A *3019:B 0
6 *3020:B *3022:A2 0
7 *65:8 *3017:B 4.74163e-05
8 *65:8 *3022:A1 0
9 *65:8 *3022:A2 0.000111945
10 *3018:A *3019:A 0
11 *3020:A *3019:A 0
12 *3022:B1 *65:8 0
*RES
1 *3017:Y *65:8 23.6977 
2 *65:8 *3020:B 20.3502 
3 *65:8 *3019:A 27.8898 
*END

*D_NET *66 0.000440063
*CONN
*I *3019:B I *D sg13cmos5l_xnor2_1
*I *3018:Y O *D sg13cmos5l_nand2_1
*CAP
1 *3019:B 0.000212331
2 *3018:Y 0.000212331
3 *3018:B *3019:B 1.54008e-05
4 *3019:A *3019:B 0
5 *59:15 *3019:B 0
*RES
1 *3018:Y *3019:B 42.2145 
*END

*D_NET *67 0.000966407
*CONN
*I *3022:B2 I *D sg13cmos5l_a221oi_1
*I *3020:Y O *D sg13cmos5l_nor2_1
*CAP
1 *3022:B2 0.00020907
2 *3020:Y 0.000129076
3 *67:8 0.000338146
4 *3022:B2 *3022:C1 8.03692e-05
5 *3022:B2 *69:8 0.000209747
6 *3021:A *3022:B2 0
7 *3022:B1 *3022:B2 0
*RES
1 *3020:Y *67:8 41.339 
2 *67:8 *3022:B2 42.266 
*END

*D_NET *68 0.000333517
*CONN
*I *3022:C1 I *D sg13cmos5l_a221oi_1
*I *3021:Y O *D sg13cmos5l_nor2_1
*CAP
1 *3022:C1 0.000118846
2 *3021:Y 0.000118846
3 *3021:A *3022:C1 0
4 *3021:B *3022:C1 1.54556e-05
5 *3022:B2 *3022:C1 8.03692e-05
*RES
1 *3021:Y *3022:C1 41.3802 
*END

*D_NET *69 0.00416924
*CONN
*I *3027:A1 I *D sg13cmos5l_o21ai_1
*I *3026:A I *D sg13cmos5l_xnor2_1
*I *3022:Y O *D sg13cmos5l_a221oi_1
*CAP
1 *3027:A1 0.000727156
2 *3026:A 5.69169e-05
3 *3022:Y 0.00011093
4 *69:10 0.00165428
5 *69:8 0.00098114
6 *3027:A1 *3026:B 0.000204284
7 *3027:A1 *3027:B1 0
8 *3027:A1 *3027:A2 1.50413e-05
9 *3027:A1 *96:12 0
10 *3027:A1 *96:22 0
11 *3022:B2 *69:8 0.000209747
12 *3022:B1 *69:8 0.000209747
*RES
1 *3022:Y *69:8 41.4008 
2 *69:8 *69:10 10.7326 
3 *69:10 *3026:A 40.5974 
4 *69:10 *3027:A1 47.8898 
*END

*D_NET *70 0.000331329
*CONN
*I *3027:B1 I *D sg13cmos5l_o21ai_1
*I *3023:Y O *D sg13cmos5l_nand2_1
*CAP
1 *3027:B1 0.000158144
2 *3023:Y 0.000158144
3 *3027:B1 *3027:A2 1.50413e-05
4 *3027:B1 *3029:A 0
5 *3027:B1 *96:22 0
6 *3027:A1 *3027:B1 0
*RES
1 *3023:Y *3027:B1 41.6274 
*END

*D_NET *71 0.00074819
*CONN
*I *3027:A2 I *D sg13cmos5l_o21ai_1
*I *3024:Y O *D sg13cmos5l_nor2_1
*CAP
1 *3027:A2 3.20286e-05
2 *3024:Y 0.000183146
3 *71:8 0.000215174
4 *71:8 *3023:A 0.000287758
5 *71:8 *80:12 0
6 *71:8 *97:24 0
7 *3027:B1 *3027:A2 1.50413e-05
8 *3027:A1 *3027:A2 1.50413e-05
*RES
1 *3024:Y *71:8 42.3278 
2 *71:8 *3027:A2 40.3193 
*END

*D_NET *72 0.000468159
*CONN
*I *3026:B I *D sg13cmos5l_xnor2_1
*I *3025:X O *D sg13cmos5l_xor2_1
*CAP
1 *3026:B 0.000131937
2 *3025:X 0.000131937
3 *3026:B *96:12 0
4 *3027:A1 *3026:B 0.000204284
*RES
1 *3025:X *3026:B 41.4008 
*END

*D_NET *73 0.00116387
*CONN
*I *3029:A I *D sg13cmos5l_xnor2_1
*I *3027:Y O *D sg13cmos5l_o21ai_1
*CAP
1 *3029:A 0.000581934
2 *3027:Y 0.000581934
3 *3029:A *3029:B 0
4 *3029:A *91:8 0
5 *3029:A *97:24 0
6 *3027:B1 *3029:A 0
*RES
1 *3027:Y *3029:A 45.9946 
*END

*D_NET *74 0.000395466
*CONN
*I *3029:B I *D sg13cmos5l_xnor2_1
*I *3028:Y O *D sg13cmos5l_xnor2_1
*CAP
1 *3029:B 0.000197733
2 *3028:Y 0.000197733
3 *3029:B *91:6 0
4 *3029:B *91:8 0
5 *3029:A *3029:B 0
*RES
1 *3028:Y *3029:B 41.9982 
*END

*D_NET *75 0.0019047
*CONN
*I *2993:B I *D sg13cmos5l_and2_1
*I *2994:B I *D sg13cmos5l_xor2_1
*I *3046:X O *D sg13cmos5l_buf_1
*CAP
1 *2993:B 0.000160366
2 *2994:B 0
3 *3046:X 0.00030036
4 *75:12 0.000160366
5 *75:10 0.00030036
6 *2993:B *83:6 4.77425e-05
7 *2993:B *84:8 0.000274299
8 *2993:B *90:8 0
9 *2993:B *98:18 8.0194e-05
10 *75:10 *77:18 0.000500716
11 *75:10 *78:16 0
12 *75:10 *86:8 0
13 *75:10 *92:10 8.02927e-05
*RES
1 *3046:X *75:10 44.0994 
2 *75:10 *75:12 20 
3 *75:12 *2994:B 20 
4 *75:12 *2993:B 21.8334 
*END

*D_NET *76 0.00381299
*CONN
*I *2996:A I *D sg13cmos5l_xor2_1
*I *2995:A I *D sg13cmos5l_and2_1
*I *3047:X O *D sg13cmos5l_buf_1
*CAP
1 *2996:A 0.000129758
2 *2995:A 2.5074e-05
3 *3047:X 0.000892153
4 *76:12 0.00039695
5 *76:10 0.00113427
6 *2995:A *86:12 4.78521e-05
7 *2995:A *91:8 4.78521e-05
8 *2996:A *86:18 0.00023464
9 *76:10 *94:12 0
10 *76:10 *95:12 0
11 *76:10 *98:10 0.000371977
12 *76:12 *94:12 0
13 *3047:A *76:10 0.000144942
14 *3058:A *76:10 8.03692e-05
15 *3061:A *76:10 0.00030715
*RES
1 *3047:X *76:10 49.9704 
2 *76:10 *76:12 2.575 
3 *76:12 *2995:A 40.3193 
4 *76:12 *2996:A 41.6583 
*END

*D_NET *77 0.0110038
*CONN
*I *2999:A I *D sg13cmos5l_and2_1
*I *3000:A I *D sg13cmos5l_xnor2_1
*I *3048:X O *D sg13cmos5l_buf_1
*CAP
1 *2999:A 0.000176492
2 *3000:A 0
3 *3048:X 0.000117274
4 *77:20 0.00074099
5 *77:18 0.00108402
6 *77:12 0.00231596
7 *77:8 0.00191371
8 *77:8 *78:8 0
9 *77:8 *79:12 0
10 *77:12 *78:12 0.00289966
11 *77:12 *91:8 0
12 *77:12 *92:10 0
13 *77:12 *97:16 0.00101992
14 *77:18 *78:16 0
15 *77:18 *98:26 0
16 *49:10 *77:18 0.000235055
17 *50:10 *77:20 0
18 *51:8 *2999:A 0
19 *75:10 *77:18 0.000500716
*RES
1 *3048:X *77:8 41.339 
2 *77:8 *77:12 40.6515 
3 *77:12 *77:18 46.5302 
4 *77:18 *77:20 6.3757 
5 *77:20 *3000:A 20 
6 *77:20 *2999:A 21.8746 
*END

*D_NET *78 0.0123394
*CONN
*I *3003:A I *D sg13cmos5l_or2_1
*I *3005:A I *D sg13cmos5l_xor2_1
*I *3004:A I *D sg13cmos5l_and2_1
*I *3049:X O *D sg13cmos5l_buf_1
*CAP
1 *3003:A 2.41961e-05
2 *3005:A 0.000196642
3 *3004:A 3.68318e-05
4 *3049:X 8.24359e-05
5 *78:27 0.000357029
6 *78:16 0.00144742
7 *78:12 0.00313082
8 *78:8 0.00193885
9 *3004:A *3005:B 0
10 *3005:A *3003:B 0
11 *78:8 *95:16 7.51285e-05
12 *78:12 *79:12 0
13 *78:12 *92:10 0
14 *78:12 *93:8 0
15 *78:12 *95:12 0.00186202
16 *78:12 *97:16 0
17 *78:12 *98:10 0
18 *78:16 *86:8 0
19 *78:16 *93:14 0
20 *78:16 *98:26 0.000288346
21 *3009:A2 *3005:A 0
22 *3010:A1 *78:16 0
23 *3055:A *78:12 0
24 *3056:A *78:12 0
25 *49:10 *78:16 0
26 *54:12 *3005:A 0
27 *58:12 *78:16 0
28 *58:12 *78:27 0
29 *59:8 *3004:A 0
30 *75:10 *78:16 0
31 *77:8 *78:8 0
32 *77:12 *78:12 0.00289966
33 *77:18 *78:16 0
*RES
1 *3049:X *78:8 41.0918 
2 *78:8 *78:12 41.3004 
3 *78:12 *78:16 35.1822 
4 *78:16 *3004:A 40.3193 
5 *78:16 *78:27 1.5862 
6 *78:27 *3005:A 42.0703 
7 *78:27 *3003:A 40.3193 
*END

*D_NET *79 0.00380531
*CONN
*I *3012:A I *D sg13cmos5l_xor2_1
*I *3011:A I *D sg13cmos5l_nand2_1
*I *3050:X O *D sg13cmos5l_buf_1
*CAP
1 *3012:A 0
2 *3011:A 2.89443e-05
3 *3050:X 0.000865008
4 *79:31 6.88216e-05
5 *79:16 0.000401196
6 *79:12 0.00116844
7 *3011:A *90:8 0
8 *3011:A *96:12 4.77425e-05
9 *79:12 *95:12 0
10 *79:12 *97:16 0
11 *79:16 *90:8 0
12 *79:16 *96:12 0.000533897
13 *79:31 *94:22 0.000129595
14 *79:31 *96:12 4.77425e-05
15 *3047:A *79:12 1.54556e-05
16 *3048:A *79:12 0.00024217
17 *3049:A *79:12 0.000176597
18 *3050:A *79:12 7.9703e-05
19 *77:8 *79:12 0
20 *78:12 *79:12 0
*RES
1 *3050:X *79:12 49.9189 
2 *79:12 *79:16 23.5638 
3 *79:16 *3011:A 20.3193 
4 *79:16 *79:31 40.9167 
5 *79:31 *3012:A 20 
*END

*D_NET *80 0.00398895
*CONN
*I *3016:A I *D sg13cmos5l_nor2_1
*I *3017:A I *D sg13cmos5l_xnor2_1
*I *3022:A1 I *D sg13cmos5l_a221oi_1
*I *3051:X O *D sg13cmos5l_buf_1
*CAP
1 *3016:A 0
2 *3017:A 5.00838e-05
3 *3022:A1 0.000235803
4 *3051:X 0
5 *80:16 0.000364193
6 *80:12 0.00170086
7 *80:6 0.00162255
8 *3017:A *95:31 0
9 *3022:A1 *3016:B 0
10 *3022:A1 *3017:B 0
11 *3022:A1 *3022:A2 0
12 *80:12 *3016:B 0
13 *80:12 *3023:A 0
14 *80:12 *81:10 0
15 *80:12 *81:22 0
16 *80:16 *95:31 0
17 *3021:B *3022:A1 0
18 *3022:B1 *3022:A1 1.54556e-05
19 *65:8 *3022:A1 0
20 *71:8 *80:12 0
*RES
1 *3051:X *80:6 40 
2 *80:6 *80:12 38.7769 
3 *80:12 *80:16 20.8446 
4 *80:16 *3022:A1 42.266 
5 *80:16 *3017:A 40.5974 
6 *80:12 *3016:A 20 
*END

*D_NET *81 0.00300197
*CONN
*I *3023:A I *D sg13cmos5l_nand2_1
*I *3024:A I *D sg13cmos5l_nor2_1
*I *3025:A I *D sg13cmos5l_xor2_1
*I *3052:X O *D sg13cmos5l_buf_1
*CAP
1 *3023:A 0.000116297
2 *3024:A 0
3 *3025:A 0
4 *3052:X 0.000362466
5 *81:22 0.000754205
6 *81:12 0.000754205
7 *81:10 0.000478763
8 *81:10 *97:16 0
9 *81:10 *97:24 0
10 *81:22 *91:8 0.000209753
11 *81:22 *96:12 0
12 *81:22 *96:22 3.85294e-05
13 *71:8 *3023:A 0.000287758
14 *80:12 *3023:A 0
15 *80:12 *81:10 0
16 *80:12 *81:22 0
*RES
1 *3052:X *81:10 43.7286 
2 *81:10 *81:12 20 
3 *81:12 *81:22 47.6014 
4 *81:22 *3025:A 20 
5 *81:12 *3024:A 20 
6 *81:10 *3023:A 41.5862 
*END

*D_NET *82 0.000726477
*CONN
*I *3028:A I *D sg13cmos5l_xnor2_1
*I *3053:X O *D sg13cmos5l_buf_1
*CAP
1 *3028:A 0
2 *3053:X 0.000363239
3 *82:10 0.000363239
4 *82:10 *91:8 0
5 *82:10 *97:24 0
*RES
1 *3053:X *82:10 44.3466 
2 *82:10 *3028:A 40 
*END

*D_NET *83 0.0129277
*CONN
*I *3062:A I *D sg13cmos5l_buf_1
*I *2994:X O *D sg13cmos5l_xor2_1
*CAP
1 *3062:A 0
2 *2994:X 0
3 *83:12 0.000256921
4 *83:6 0.00643999
5 *83:4 0.00618307
6 *83:6 *84:8 0
7 *83:6 *90:8 0
8 *83:12 *84:14 0
9 *2993:B *83:6 4.77425e-05
*RES
1 *2994:X *83:4 20 
2 *83:4 *83:6 52.8802 
3 *83:6 *83:12 43.3166 
4 *83:12 *3062:A 20 
*END

*D_NET *84 0.0131225
*CONN
*I *3063:A I *D sg13cmos5l_buf_1
*I *2997:X O *D sg13cmos5l_xor2_1
*CAP
1 *3063:A 0
2 *2997:X 7.14129e-05
3 *84:14 0.000303644
4 *84:8 0.00616678
5 *84:6 0.00593455
6 *84:8 *98:18 0
7 *84:8 *98:26 0
8 *2993:B *84:8 0.000274299
9 *46:10 *84:8 0.000371824
10 *46:16 *84:8 0
11 *83:6 *84:8 0
12 *83:12 *84:14 0
*RES
1 *2997:X *84:6 20.8446 
2 *84:6 *84:8 56.1247 
3 *84:8 *84:14 43.811 
4 *84:14 *3063:A 20 
*END

*D_NET *85 0.010936
*CONN
*I *3064:A I *D sg13cmos5l_buf_1
*I *3002:X O *D sg13cmos5l_xor2_1
*CAP
1 *3064:A 0
2 *3002:X 0.00061549
3 *85:14 0.0029974
4 *85:10 0.0029974
5 *85:8 0.00061549
6 *85:14 *87:16 0.00371018
7 *85:14 *90:8 0
8 *85:14 *91:8 0
9 uio_oe[0] *85:14 0
10 uio_oe[1] *85:14 0
11 uio_oe[2] *85:14 0
12 uio_out[6] *85:14 0
13 uio_out[7] *85:14 0
*RES
1 *3002:X *85:8 46.7774 
2 *85:8 *85:10 20 
3 *85:10 *85:14 30.9473 
4 *85:14 *3064:A 20 
*END

*D_NET *86 0.00357543
*CONN
*I *2995:B I *D sg13cmos5l_and2_1
*I *2996:B I *D sg13cmos5l_xor2_1
*I *3054:X O *D sg13cmos5l_buf_1
*CAP
1 *2995:B 0
2 *2996:B 0
3 *3054:X 0.000238789
4 *86:18 0.000142398
5 *86:12 0.000865378
6 *86:8 0.000961769
7 *86:8 *93:14 0
8 *86:12 *90:8 0.0010846
9 *86:12 *91:8 0
10 *86:18 *94:12 0
11 *2995:A *86:12 4.78521e-05
12 *2996:A *86:18 0.00023464
13 *75:10 *86:8 0
14 *78:16 *86:8 0
*RES
1 *3054:X *86:8 42.575 
2 *86:8 *86:12 27.2409 
3 *86:12 *86:18 41.8334 
4 *86:18 *2996:B 20 
5 *86:12 *2995:B 20 
*END

*D_NET *87 0.0126449
*CONN
*I *3065:A I *D sg13cmos5l_buf_1
*I *3007:Y O *D sg13cmos5l_xnor2_1
*CAP
1 *3065:A 0
2 *3007:Y 0.000910232
3 *87:16 0.00218714
4 *87:10 0.0035571
5 *87:6 0.0022802
6 *87:6 *88:6 0
7 uio_out[0] *87:16 0
8 uio_out[1] *87:16 0
9 uio_out[2] *87:16 0
10 uio_out[4] *87:16 0
11 uio_out[5] *87:16 0
12 uio_out[6] *87:16 0
13 uo_out[4] *87:16 0
14 uo_out[5] *87:16 0
15 uo_out[6] *87:16 0
16 uo_out[7] *87:16 0
17 *85:14 *87:16 0.00371018
*RES
1 *3007:Y *87:6 30.0528 
2 *87:6 *87:10 35.4294 
3 *87:10 *87:16 45.1114 
4 *87:16 *3065:A 20 
*END

*D_NET *88 0.014782
*CONN
*I *3066:A I *D sg13cmos5l_buf_1
*I *3015:Y O *D sg13cmos5l_xnor2_1
*CAP
1 *3066:A 0
2 *3015:Y 0
3 *88:10 0.00120178
4 *88:6 0.00684076
5 *88:4 0.00563898
6 *88:6 *3005:B 0
7 *88:6 *89:12 0
8 *3006:A *88:6 0.0010527
9 *3006:B *88:6 4.77425e-05
10 *3007:B *88:6 0
11 *3010:A2 *88:6 0
12 *55:8 *88:6 0
13 *59:8 *88:6 0
14 *87:6 *88:6 0
*RES
1 *3015:Y *88:4 20 
2 *88:4 *88:6 53.9617 
3 *88:6 *88:10 34.6878 
4 *88:10 *3066:A 40 
*END

*D_NET *89 0.0138289
*CONN
*I *3067:A I *D sg13cmos5l_buf_1
*I *3019:Y O *D sg13cmos5l_xnor2_1
*CAP
1 *3067:A 0
2 *3019:Y 0.000200488
3 *89:16 0.00116432
4 *89:12 0.00667776
5 *89:10 0.00551344
6 *89:8 0.000200488
7 *89:16 *90:14 0
8 *3006:B *89:12 4.77425e-05
9 *3014:B *89:8 0
10 *3015:B *89:12 2.46687e-05
11 *49:14 *89:12 0
12 *49:22 *89:12 0
13 *59:8 *89:12 0
14 *63:8 *89:8 0
15 *88:6 *89:12 0
*RES
1 *3019:Y *89:8 42.3278 
2 *89:8 *89:10 20 
3 *89:10 *89:12 52.015 
4 *89:12 *89:16 34.1934 
5 *89:16 *3067:A 40 
*END

*D_NET *90 0.0148724
*CONN
*I *3068:A I *D sg13cmos5l_buf_1
*I *3026:Y O *D sg13cmos5l_xnor2_1
*CAP
1 *3068:A 0
2 *3026:Y 8.64409e-05
3 *90:14 0.000230537
4 *90:8 0.00655666
5 *90:6 0.00641256
6 *90:8 *91:8 0
7 *90:8 *94:16 0
8 *90:8 *96:12 0
9 *90:8 *98:18 0
10 *90:14 *91:14 0
11 *2993:B *90:8 0
12 *3011:A *90:8 0
13 *47:10 *90:8 0.000501627
14 *48:8 *90:8 0
15 *79:16 *90:8 0
16 *83:6 *90:8 0
17 *85:14 *90:8 0
18 *86:12 *90:8 0.0010846
19 *89:16 *90:14 0
*RES
1 *3026:Y *90:6 21.0918 
2 *90:6 *90:8 59.1529 
3 *90:8 *90:14 42.8222 
4 *90:14 *3068:A 20 
*END

*D_NET *91 0.0146151
*CONN
*I *3069:A I *D sg13cmos5l_buf_1
*I *3029:Y O *D sg13cmos5l_xnor2_1
*CAP
1 *3069:A 0
2 *3029:Y 8.70244e-05
3 *91:14 0.000174339
4 *91:8 0.00709173
5 *91:6 0.00700441
6 *91:8 *92:10 0
7 *91:8 *96:12 0
8 *91:8 *97:16 0
9 *91:8 *97:24 0
10 uio_oe[3] *91:8 0
11 uio_oe[5] *91:8 0
12 uio_oe[6] *91:8 0
13 *2995:A *91:8 4.78521e-05
14 *3029:A *91:8 0
15 *3029:B *91:6 0
16 *3029:B *91:8 0
17 *77:12 *91:8 0
18 *81:22 *91:8 0.000209753
19 *82:10 *91:8 0
20 *85:14 *91:8 0
21 *86:12 *91:8 0
22 *90:8 *91:8 0
23 *90:14 *91:14 0
*RES
1 *3029:Y *91:6 21.0918 
2 *91:6 *91:8 69.4033 
3 *91:8 *91:14 42.0806 
4 *91:14 *3069:A 20 
*END

*D_NET *92 0.00352142
*CONN
*I *2999:B I *D sg13cmos5l_and2_1
*I *3000:B I *D sg13cmos5l_xnor2_1
*I *3055:X O *D sg13cmos5l_buf_1
*CAP
1 *2999:B 0.00015743
2 *3000:B 0
3 *3055:X 0.000917666
4 *92:12 0.000802897
5 *92:10 0.00156313
6 uio_oe[7] *92:10 0
7 *3046:A *92:10 0
8 *3054:A *92:10 0
9 *3055:A *92:10 0
10 *75:10 *92:10 8.02927e-05
11 *77:12 *92:10 0
12 *78:12 *92:10 0
13 *91:8 *92:10 0
*RES
1 *3055:X *92:10 49.7541 
2 *92:10 *92:12 7.2718 
3 *92:12 *3000:B 40 
4 *92:12 *2999:B 41.8334 
*END

*D_NET *93 0.00437638
*CONN
*I *3003:B I *D sg13cmos5l_or2_1
*I *3005:B I *D sg13cmos5l_xor2_1
*I *3004:B I *D sg13cmos5l_and2_1
*I *3056:X O *D sg13cmos5l_buf_1
*CAP
1 *3003:B 8.27101e-05
2 *3005:B 0.000221837
3 *3004:B 4.91764e-05
4 *3056:X 0.000164427
5 *93:16 0.000292458
6 *93:14 0.00168029
7 *93:8 0.00174056
8 *93:14 *98:18 0
9 *3004:A *3005:B 0
10 *3005:A *3003:B 0
11 *3055:A *93:8 0
12 *3056:A *93:8 0
13 *46:10 *93:14 0
14 *47:10 *93:14 0
15 *48:14 *93:14 0
16 *54:12 *3003:B 0
17 *54:12 *3005:B 0.000144924
18 *55:8 *3004:B 0
19 *55:8 *3005:B 0
20 *59:8 *3004:B 0
21 *59:8 *3005:B 0
22 *59:8 *93:14 0
23 *59:8 *93:16 0
24 *78:12 *93:8 0
25 *78:16 *93:14 0
26 *86:8 *93:14 0
27 *88:6 *3005:B 0
*RES
1 *3056:X *93:8 41.6171 
2 *93:8 *93:14 38.2825 
3 *93:14 *93:16 0.3193 
4 *93:16 *3004:B 20.6257 
5 *93:16 *3005:B 22.5029 
6 *93:14 *3003:B 21.0918 
*END

*D_NET *94 0.00309547
*CONN
*I *3011:B I *D sg13cmos5l_nand2_1
*I *3012:B I *D sg13cmos5l_xor2_1
*I *3057:X O *D sg13cmos5l_buf_1
*CAP
1 *3011:B 0
2 *3012:B 0
3 *3057:X 0.000580351
4 *94:22 0.000165992
5 *94:16 0.000700543
6 *94:12 0.0011149
7 *94:12 *96:8 0
8 *94:12 *98:10 0.000404087
9 *94:16 *96:12 0
10 *3058:A *94:12 0
11 *60:8 *94:22 0
12 *76:10 *94:12 0
13 *76:12 *94:12 0
14 *79:31 *94:22 0.000129595
15 *86:18 *94:12 0
16 *90:8 *94:16 0
*RES
1 *3057:X *94:12 46.1182 
2 *94:12 *94:16 24.8616 
3 *94:16 *94:22 41.8334 
4 *94:22 *3012:B 20 
5 *94:16 *3011:B 20 
*END

*D_NET *95 0.00873577
*CONN
*I *3017:B I *D sg13cmos5l_xnor2_1
*I *3022:A2 I *D sg13cmos5l_a221oi_1
*I *3016:B I *D sg13cmos5l_nor2_1
*I *3058:X O *D sg13cmos5l_buf_1
*CAP
1 *3017:B 8.38612e-05
2 *3022:A2 0.000198479
3 *3016:B 0.000111543
4 *3058:X 8.79244e-05
5 *95:31 0.000495258
6 *95:16 0.00154792
7 *95:12 0.00226951
8 *95:8 0.00113397
9 *95:12 *98:10 0.000663379
10 *3017:A *95:31 0
11 *3020:B *3022:A2 0
12 *3021:B *3016:B 4.74163e-05
13 *3022:A1 *3016:B 0
14 *3022:A1 *3017:B 0
15 *3022:A1 *3022:A2 0
16 *3047:A *95:12 0
17 *65:8 *3017:B 4.74163e-05
18 *65:8 *3022:A2 0.000111945
19 *76:10 *95:12 0
20 *78:8 *95:16 7.51285e-05
21 *78:12 *95:12 0.00186202
22 *79:12 *95:12 0
23 *80:12 *3016:B 0
24 *80:16 *95:31 0
*RES
1 *3058:X *95:8 40.8446 
2 *95:8 *95:12 32.4321 
3 *95:12 *95:16 33.9462 
4 *95:16 *3016:B 41.3184 
5 *95:16 *95:31 22.3278 
6 *95:31 *3022:A2 21.9055 
7 *95:31 *3017:B 20.9682 
*END

*D_NET *96 0.00479847
*CONN
*I *3025:B I *D sg13cmos5l_xor2_1
*I *3023:B I *D sg13cmos5l_nand2_1
*I *3024:B I *D sg13cmos5l_nor2_1
*I *3059:X O *D sg13cmos5l_buf_1
*CAP
1 *3025:B 3.02124e-05
2 *3023:B 0
3 *3024:B 9.00612e-05
4 *3059:X 0.000368811
5 *96:22 0.000818537
6 *96:12 0.0016064
7 *96:8 0.00121653
8 *96:8 *97:8 0
9 *3011:A *96:12 4.77425e-05
10 *3026:B *96:12 0
11 *3027:B1 *96:22 0
12 *3027:A1 *96:12 0
13 *3027:A1 *96:22 0
14 *61:8 *96:12 0
15 *79:16 *96:12 0.000533897
16 *79:31 *96:12 4.77425e-05
17 *81:22 *96:12 0
18 *81:22 *96:22 3.85294e-05
19 *90:8 *96:12 0
20 *91:8 *96:12 0
21 *94:12 *96:8 0
22 *94:16 *96:12 0
*RES
1 *3059:X *96:8 44.0582 
2 *96:8 *96:12 29.1876 
3 *96:12 *96:22 6.9434 
4 *96:22 *3024:B 21.3313 
5 *96:22 *3023:B 20 
6 *96:12 *3025:B 20.3502 
*END

*D_NET *97 0.00543875
*CONN
*I *3028:B I *D sg13cmos5l_xnor2_1
*I *3060:X O *D sg13cmos5l_buf_1
*CAP
1 *3028:B 0
2 *3060:X 0.000144778
3 *97:24 0.000405024
4 *97:16 0.00206464
5 *97:8 0.00180439
6 *3029:A *97:24 0
7 *3050:A *97:16 0
8 *3051:A *97:16 0
9 *3052:A *97:16 0
10 *71:8 *97:24 0
11 *77:12 *97:16 0.00101992
12 *78:12 *97:16 0
13 *79:12 *97:16 0
14 *81:10 *97:16 0
15 *81:10 *97:24 0
16 *82:10 *97:24 0
17 *91:8 *97:16 0
18 *91:8 *97:24 0
19 *96:8 *97:8 0
*RES
1 *3060:X *97:8 41.5862 
2 *97:8 *97:16 35.1802 
3 *97:16 *97:24 44.1921 
4 *97:24 *3028:B 20 
*END

*D_NET *98 0.00620913
*CONN
*I *2993:A I *D sg13cmos5l_and2_1
*I *2994:A I *D sg13cmos5l_xor2_1
*I *3061:X O *D sg13cmos5l_buf_1
*CAP
1 *2993:A 0
2 *2994:A 0
3 *3061:X 0.00114568
4 *98:26 0.000244357
5 *98:18 0.00101733
6 *98:10 0.00191865
7 *2993:B *98:18 8.0194e-05
8 *3056:A *98:10 0
9 *3057:A *98:10 0
10 *46:16 *98:18 0
11 *47:10 *98:18 7.51285e-05
12 *49:8 *98:26 0
13 *76:10 *98:10 0.000371977
14 *77:18 *98:26 0
15 *78:12 *98:10 0
16 *78:16 *98:26 0.000288346
17 *84:8 *98:18 0
18 *84:8 *98:26 0
19 *90:8 *98:18 0
20 *93:14 *98:18 0
21 *94:12 *98:10 0.000404087
22 *95:12 *98:10 0.000663379
*RES
1 *3061:X *98:10 32.051 
2 *98:10 *98:18 47.2512 
3 *98:18 *98:26 42.7398 
4 *98:26 *2994:A 20 
5 *98:18 *2993:A 20 
*END
