*SPEF "ieee 1481-1999"
*DESIGN "heichips26_example_large"
*DATE "09:32:30 Monday July 20, 2026"
*VENDOR "The OpenROAD Project"
*PROGRAM "OpenROAD"
*VERSION "dcf36133a369abc8f3c5e5738cd4d82e4903c0e0"
*DESIGN_FLOW "NAME_SCOPE LOCAL" "PIN_CAP NONE"
*DIVIDER /
*DELIMITER :
*BUS_DELIMITER []
*T_UNIT 1 NS
*C_UNIT 1 PF
*R_UNIT 1 OHM
*L_UNIT 1 HENRY

*NAME_MAP
*3 clk
*4 ena
*5 rst_n
*6 ui_in[0]
*7 ui_in[10]
*8 ui_in[11]
*9 ui_in[12]
*10 ui_in[13]
*11 ui_in[14]
*12 ui_in[15]
*13 ui_in[1]
*14 ui_in[2]
*15 ui_in[3]
*16 ui_in[4]
*17 ui_in[5]
*18 ui_in[6]
*19 ui_in[7]
*20 ui_in[8]
*21 ui_in[9]
*22 uio_in[0]
*23 uio_in[10]
*24 uio_in[11]
*25 uio_in[12]
*26 uio_in[13]
*27 uio_in[14]
*28 uio_in[15]
*29 uio_in[1]
*30 uio_in[2]
*31 uio_in[3]
*32 uio_in[4]
*33 uio_in[5]
*34 uio_in[6]
*35 uio_in[7]
*36 uio_in[8]
*37 uio_in[9]
*38 net
*39 net58
*40 net59
*41 net60
*42 net61
*43 net62
*44 net63
*45 net49
*46 net50
*47 net51
*48 net52
*49 net53
*50 net54
*51 net55
*52 net56
*53 net57
*54 net64
*55 net74
*56 net75
*57 net76
*58 net77
*59 net78
*60 net79
*61 net65
*62 net66
*63 net67
*64 net68
*65 net69
*66 net70
*67 net71
*68 net72
*69 net73
*70 uo_out[0]
*71 uo_out[10]
*72 uo_out[11]
*73 uo_out[12]
*74 uo_out[13]
*75 uo_out[14]
*76 uo_out[15]
*77 uo_out[1]
*78 uo_out[2]
*79 uo_out[3]
*80 uo_out[4]
*81 uo_out[5]
*82 uo_out[6]
*83 uo_out[7]
*84 uo_out[8]
*85 uo_out[9]
*86 _000_
*87 _001_
*88 _002_
*89 _003_
*90 _004_
*91 _005_
*92 _006_
*93 _007_
*94 _008_
*95 _009_
*96 _010_
*97 _011_
*98 _012_
*99 _013_
*100 _014_
*101 _015_
*102 _016_
*103 _017_
*104 _018_
*105 _019_
*106 _020_
*107 _021_
*108 _022_
*109 _023_
*110 _024_
*111 _025_
*112 _026_
*113 _027_
*114 _028_
*115 _029_
*116 _030_
*117 _031_
*118 _032_
*119 _033_
*120 _034_
*121 _035_
*122 _036_
*123 _037_
*124 _038_
*125 _039_
*126 _040_
*127 _041_
*128 _042_
*129 _043_
*130 _044_
*131 _045_
*132 _046_
*133 _047_
*134 _048_
*135 _049_
*136 _050_
*137 _051_
*138 _052_
*139 _053_
*140 _054_
*141 _055_
*142 _056_
*143 _057_
*144 _058_
*145 _059_
*146 _060_
*147 _061_
*148 _062_
*149 _063_
*150 _064_
*151 _065_
*152 _066_
*153 _067_
*154 _068_
*155 net1
*156 net10
*157 net11
*158 net12
*159 net13
*160 net14
*161 net15
*162 net16
*163 net17
*164 net18
*165 net19
*166 net2
*167 net20
*168 net21
*169 net22
*170 net23
*171 net24
*172 net25
*173 net26
*174 net27
*175 net28
*176 net29
*177 net3
*178 net30
*179 net31
*180 net32
*181 net33
*182 net34
*183 net35
*184 net36
*185 net37
*186 net38
*187 net39
*188 net4
*189 net40
*190 net41
*191 net42
*192 net43
*193 net44
*194 net45
*195 net46
*196 net47
*197 net48
*198 net5
*199 net6
*200 net7
*201 net8
*202 net9
*203 FILLER_0_0
*204 FILLER_0_1001
*205 FILLER_0_1008
*206 FILLER_0_1015
*207 FILLER_0_1022
*208 FILLER_0_105
*209 FILLER_0_112
*210 FILLER_0_119
*211 FILLER_0_126
*212 FILLER_0_133
*213 FILLER_0_14
*214 FILLER_0_140
*215 FILLER_0_147
*216 FILLER_0_154
*217 FILLER_0_161
*218 FILLER_0_168
*219 FILLER_0_175
*220 FILLER_0_182
*221 FILLER_0_189
*222 FILLER_0_196
*223 FILLER_0_203
*224 FILLER_0_21
*225 FILLER_0_210
*226 FILLER_0_217
*227 FILLER_0_224
*228 FILLER_0_231
*229 FILLER_0_238
*230 FILLER_0_245
*231 FILLER_0_252
*232 FILLER_0_259
*233 FILLER_0_266
*234 FILLER_0_273
*235 FILLER_0_28
*236 FILLER_0_280
*237 FILLER_0_287
*238 FILLER_0_294
*239 FILLER_0_301
*240 FILLER_0_308
*241 FILLER_0_315
*242 FILLER_0_322
*243 FILLER_0_329
*244 FILLER_0_336
*245 FILLER_0_343
*246 FILLER_0_35
*247 FILLER_0_350
*248 FILLER_0_357
*249 FILLER_0_364
*250 FILLER_0_371
*251 FILLER_0_378
*252 FILLER_0_385
*253 FILLER_0_392
*254 FILLER_0_399
*255 FILLER_0_406
*256 FILLER_0_413
*257 FILLER_0_42
*258 FILLER_0_420
*259 FILLER_0_427
*260 FILLER_0_434
*261 FILLER_0_441
*262 FILLER_0_448
*263 FILLER_0_455
*264 FILLER_0_462
*265 FILLER_0_469
*266 FILLER_0_476
*267 FILLER_0_483
*268 FILLER_0_49
*269 FILLER_0_490
*270 FILLER_0_497
*271 FILLER_0_504
*272 FILLER_0_511
*273 FILLER_0_518
*274 FILLER_0_525
*275 FILLER_0_532
*276 FILLER_0_539
*277 FILLER_0_546
*278 FILLER_0_553
*279 FILLER_0_56
*280 FILLER_0_560
*281 FILLER_0_567
*282 FILLER_0_574
*283 FILLER_0_581
*284 FILLER_0_588
*285 FILLER_0_595
*286 FILLER_0_602
*287 FILLER_0_609
*288 FILLER_0_616
*289 FILLER_0_623
*290 FILLER_0_63
*291 FILLER_0_630
*292 FILLER_0_637
*293 FILLER_0_644
*294 FILLER_0_651
*295 FILLER_0_658
*296 FILLER_0_665
*297 FILLER_0_672
*298 FILLER_0_679
*299 FILLER_0_686
*300 FILLER_0_693
*301 FILLER_0_7
*302 FILLER_0_70
*303 FILLER_0_700
*304 FILLER_0_707
*305 FILLER_0_714
*306 FILLER_0_721
*307 FILLER_0_728
*308 FILLER_0_735
*309 FILLER_0_742
*310 FILLER_0_749
*311 FILLER_0_756
*312 FILLER_0_763
*313 FILLER_0_77
*314 FILLER_0_770
*315 FILLER_0_777
*316 FILLER_0_784
*317 FILLER_0_791
*318 FILLER_0_798
*319 FILLER_0_805
*320 FILLER_0_812
*321 FILLER_0_819
*322 FILLER_0_826
*323 FILLER_0_833
*324 FILLER_0_84
*325 FILLER_0_840
*326 FILLER_0_847
*327 FILLER_0_854
*328 FILLER_0_861
*329 FILLER_0_868
*330 FILLER_0_875
*331 FILLER_0_882
*332 FILLER_0_889
*333 FILLER_0_896
*334 FILLER_0_903
*335 FILLER_0_91
*336 FILLER_0_910
*337 FILLER_0_917
*338 FILLER_0_924
*339 FILLER_0_931
*340 FILLER_0_938
*341 FILLER_0_945
*342 FILLER_0_952
*343 FILLER_0_959
*344 FILLER_0_966
*345 FILLER_0_973
*346 FILLER_0_98
*347 FILLER_0_980
*348 FILLER_0_987
*349 FILLER_0_994
*350 FILLER_100_0
*351 FILLER_100_1001
*352 FILLER_100_1008
*353 FILLER_100_1015
*354 FILLER_100_1022
*355 FILLER_100_105
*356 FILLER_100_112
*357 FILLER_100_119
*358 FILLER_100_126
*359 FILLER_100_133
*360 FILLER_100_14
*361 FILLER_100_140
*362 FILLER_100_147
*363 FILLER_100_154
*364 FILLER_100_161
*365 FILLER_100_168
*366 FILLER_100_175
*367 FILLER_100_182
*368 FILLER_100_189
*369 FILLER_100_196
*370 FILLER_100_203
*371 FILLER_100_21
*372 FILLER_100_210
*373 FILLER_100_217
*374 FILLER_100_224
*375 FILLER_100_231
*376 FILLER_100_238
*377 FILLER_100_245
*378 FILLER_100_252
*379 FILLER_100_259
*380 FILLER_100_266
*381 FILLER_100_273
*382 FILLER_100_28
*383 FILLER_100_280
*384 FILLER_100_287
*385 FILLER_100_294
*386 FILLER_100_301
*387 FILLER_100_308
*388 FILLER_100_315
*389 FILLER_100_322
*390 FILLER_100_329
*391 FILLER_100_336
*392 FILLER_100_343
*393 FILLER_100_35
*394 FILLER_100_350
*395 FILLER_100_357
*396 FILLER_100_364
*397 FILLER_100_371
*398 FILLER_100_378
*399 FILLER_100_385
*400 FILLER_100_392
*401 FILLER_100_399
*402 FILLER_100_406
*403 FILLER_100_413
*404 FILLER_100_42
*405 FILLER_100_420
*406 FILLER_100_427
*407 FILLER_100_434
*408 FILLER_100_441
*409 FILLER_100_448
*410 FILLER_100_455
*411 FILLER_100_462
*412 FILLER_100_469
*413 FILLER_100_476
*414 FILLER_100_483
*415 FILLER_100_49
*416 FILLER_100_490
*417 FILLER_100_497
*418 FILLER_100_504
*419 FILLER_100_511
*420 FILLER_100_518
*421 FILLER_100_525
*422 FILLER_100_532
*423 FILLER_100_539
*424 FILLER_100_546
*425 FILLER_100_553
*426 FILLER_100_56
*427 FILLER_100_560
*428 FILLER_100_567
*429 FILLER_100_574
*430 FILLER_100_581
*431 FILLER_100_588
*432 FILLER_100_595
*433 FILLER_100_602
*434 FILLER_100_609
*435 FILLER_100_616
*436 FILLER_100_623
*437 FILLER_100_63
*438 FILLER_100_630
*439 FILLER_100_637
*440 FILLER_100_644
*441 FILLER_100_651
*442 FILLER_100_658
*443 FILLER_100_665
*444 FILLER_100_672
*445 FILLER_100_679
*446 FILLER_100_686
*447 FILLER_100_693
*448 FILLER_100_7
*449 FILLER_100_70
*450 FILLER_100_700
*451 FILLER_100_707
*452 FILLER_100_714
*453 FILLER_100_721
*454 FILLER_100_728
*455 FILLER_100_735
*456 FILLER_100_742
*457 FILLER_100_749
*458 FILLER_100_756
*459 FILLER_100_763
*460 FILLER_100_77
*461 FILLER_100_770
*462 FILLER_100_777
*463 FILLER_100_784
*464 FILLER_100_791
*465 FILLER_100_798
*466 FILLER_100_805
*467 FILLER_100_812
*468 FILLER_100_819
*469 FILLER_100_826
*470 FILLER_100_833
*471 FILLER_100_84
*472 FILLER_100_840
*473 FILLER_100_847
*474 FILLER_100_854
*475 FILLER_100_861
*476 FILLER_100_868
*477 FILLER_100_875
*478 FILLER_100_882
*479 FILLER_100_889
*480 FILLER_100_896
*481 FILLER_100_903
*482 FILLER_100_91
*483 FILLER_100_910
*484 FILLER_100_917
*485 FILLER_100_924
*486 FILLER_100_931
*487 FILLER_100_938
*488 FILLER_100_945
*489 FILLER_100_952
*490 FILLER_100_959
*491 FILLER_100_966
*492 FILLER_100_973
*493 FILLER_100_98
*494 FILLER_100_980
*495 FILLER_100_987
*496 FILLER_100_994
*497 FILLER_101_0
*498 FILLER_101_1001
*499 FILLER_101_1008
*500 FILLER_101_1015
*501 FILLER_101_1022
*502 FILLER_101_105
*503 FILLER_101_112
*504 FILLER_101_119
*505 FILLER_101_126
*506 FILLER_101_133
*507 FILLER_101_14
*508 FILLER_101_140
*509 FILLER_101_147
*510 FILLER_101_154
*511 FILLER_101_161
*512 FILLER_101_168
*513 FILLER_101_175
*514 FILLER_101_182
*515 FILLER_101_189
*516 FILLER_101_196
*517 FILLER_101_203
*518 FILLER_101_21
*519 FILLER_101_210
*520 FILLER_101_217
*521 FILLER_101_224
*522 FILLER_101_231
*523 FILLER_101_238
*524 FILLER_101_245
*525 FILLER_101_252
*526 FILLER_101_259
*527 FILLER_101_266
*528 FILLER_101_273
*529 FILLER_101_28
*530 FILLER_101_280
*531 FILLER_101_287
*532 FILLER_101_294
*533 FILLER_101_301
*534 FILLER_101_308
*535 FILLER_101_315
*536 FILLER_101_322
*537 FILLER_101_329
*538 FILLER_101_336
*539 FILLER_101_343
*540 FILLER_101_35
*541 FILLER_101_350
*542 FILLER_101_357
*543 FILLER_101_364
*544 FILLER_101_371
*545 FILLER_101_378
*546 FILLER_101_385
*547 FILLER_101_392
*548 FILLER_101_399
*549 FILLER_101_406
*550 FILLER_101_413
*551 FILLER_101_42
*552 FILLER_101_420
*553 FILLER_101_427
*554 FILLER_101_434
*555 FILLER_101_441
*556 FILLER_101_448
*557 FILLER_101_455
*558 FILLER_101_462
*559 FILLER_101_469
*560 FILLER_101_476
*561 FILLER_101_483
*562 FILLER_101_49
*563 FILLER_101_490
*564 FILLER_101_497
*565 FILLER_101_504
*566 FILLER_101_511
*567 FILLER_101_518
*568 FILLER_101_525
*569 FILLER_101_532
*570 FILLER_101_539
*571 FILLER_101_546
*572 FILLER_101_553
*573 FILLER_101_56
*574 FILLER_101_560
*575 FILLER_101_567
*576 FILLER_101_574
*577 FILLER_101_581
*578 FILLER_101_588
*579 FILLER_101_595
*580 FILLER_101_602
*581 FILLER_101_609
*582 FILLER_101_616
*583 FILLER_101_623
*584 FILLER_101_63
*585 FILLER_101_630
*586 FILLER_101_637
*587 FILLER_101_644
*588 FILLER_101_651
*589 FILLER_101_658
*590 FILLER_101_665
*591 FILLER_101_672
*592 FILLER_101_679
*593 FILLER_101_686
*594 FILLER_101_693
*595 FILLER_101_7
*596 FILLER_101_70
*597 FILLER_101_700
*598 FILLER_101_707
*599 FILLER_101_714
*600 FILLER_101_721
*601 FILLER_101_728
*602 FILLER_101_735
*603 FILLER_101_742
*604 FILLER_101_749
*605 FILLER_101_756
*606 FILLER_101_763
*607 FILLER_101_77
*608 FILLER_101_770
*609 FILLER_101_777
*610 FILLER_101_784
*611 FILLER_101_791
*612 FILLER_101_798
*613 FILLER_101_805
*614 FILLER_101_812
*615 FILLER_101_819
*616 FILLER_101_826
*617 FILLER_101_833
*618 FILLER_101_84
*619 FILLER_101_840
*620 FILLER_101_847
*621 FILLER_101_854
*622 FILLER_101_861
*623 FILLER_101_868
*624 FILLER_101_875
*625 FILLER_101_882
*626 FILLER_101_889
*627 FILLER_101_896
*628 FILLER_101_903
*629 FILLER_101_91
*630 FILLER_101_910
*631 FILLER_101_917
*632 FILLER_101_924
*633 FILLER_101_931
*634 FILLER_101_938
*635 FILLER_101_945
*636 FILLER_101_952
*637 FILLER_101_959
*638 FILLER_101_966
*639 FILLER_101_973
*640 FILLER_101_98
*641 FILLER_101_980
*642 FILLER_101_987
*643 FILLER_101_994
*644 FILLER_102_0
*645 FILLER_102_1001
*646 FILLER_102_1008
*647 FILLER_102_1015
*648 FILLER_102_1022
*649 FILLER_102_105
*650 FILLER_102_112
*651 FILLER_102_119
*652 FILLER_102_126
*653 FILLER_102_133
*654 FILLER_102_14
*655 FILLER_102_140
*656 FILLER_102_147
*657 FILLER_102_154
*658 FILLER_102_161
*659 FILLER_102_168
*660 FILLER_102_175
*661 FILLER_102_182
*662 FILLER_102_189
*663 FILLER_102_196
*664 FILLER_102_203
*665 FILLER_102_21
*666 FILLER_102_210
*667 FILLER_102_217
*668 FILLER_102_224
*669 FILLER_102_231
*670 FILLER_102_238
*671 FILLER_102_245
*672 FILLER_102_252
*673 FILLER_102_259
*674 FILLER_102_266
*675 FILLER_102_273
*676 FILLER_102_28
*677 FILLER_102_280
*678 FILLER_102_287
*679 FILLER_102_294
*680 FILLER_102_301
*681 FILLER_102_308
*682 FILLER_102_315
*683 FILLER_102_322
*684 FILLER_102_329
*685 FILLER_102_336
*686 FILLER_102_343
*687 FILLER_102_35
*688 FILLER_102_350
*689 FILLER_102_357
*690 FILLER_102_364
*691 FILLER_102_371
*692 FILLER_102_378
*693 FILLER_102_385
*694 FILLER_102_392
*695 FILLER_102_399
*696 FILLER_102_406
*697 FILLER_102_413
*698 FILLER_102_42
*699 FILLER_102_420
*700 FILLER_102_427
*701 FILLER_102_434
*702 FILLER_102_441
*703 FILLER_102_448
*704 FILLER_102_455
*705 FILLER_102_462
*706 FILLER_102_469
*707 FILLER_102_476
*708 FILLER_102_483
*709 FILLER_102_49
*710 FILLER_102_490
*711 FILLER_102_497
*712 FILLER_102_504
*713 FILLER_102_511
*714 FILLER_102_518
*715 FILLER_102_525
*716 FILLER_102_532
*717 FILLER_102_539
*718 FILLER_102_546
*719 FILLER_102_553
*720 FILLER_102_56
*721 FILLER_102_560
*722 FILLER_102_567
*723 FILLER_102_574
*724 FILLER_102_581
*725 FILLER_102_588
*726 FILLER_102_595
*727 FILLER_102_602
*728 FILLER_102_609
*729 FILLER_102_616
*730 FILLER_102_623
*731 FILLER_102_63
*732 FILLER_102_630
*733 FILLER_102_637
*734 FILLER_102_644
*735 FILLER_102_651
*736 FILLER_102_658
*737 FILLER_102_665
*738 FILLER_102_672
*739 FILLER_102_679
*740 FILLER_102_686
*741 FILLER_102_693
*742 FILLER_102_7
*743 FILLER_102_70
*744 FILLER_102_700
*745 FILLER_102_707
*746 FILLER_102_714
*747 FILLER_102_721
*748 FILLER_102_728
*749 FILLER_102_735
*750 FILLER_102_742
*751 FILLER_102_749
*752 FILLER_102_756
*753 FILLER_102_763
*754 FILLER_102_77
*755 FILLER_102_770
*756 FILLER_102_777
*757 FILLER_102_784
*758 FILLER_102_791
*759 FILLER_102_798
*760 FILLER_102_805
*761 FILLER_102_812
*762 FILLER_102_819
*763 FILLER_102_826
*764 FILLER_102_833
*765 FILLER_102_84
*766 FILLER_102_840
*767 FILLER_102_847
*768 FILLER_102_854
*769 FILLER_102_861
*770 FILLER_102_868
*771 FILLER_102_875
*772 FILLER_102_882
*773 FILLER_102_889
*774 FILLER_102_896
*775 FILLER_102_903
*776 FILLER_102_91
*777 FILLER_102_910
*778 FILLER_102_917
*779 FILLER_102_924
*780 FILLER_102_931
*781 FILLER_102_938
*782 FILLER_102_945
*783 FILLER_102_952
*784 FILLER_102_959
*785 FILLER_102_966
*786 FILLER_102_973
*787 FILLER_102_98
*788 FILLER_102_980
*789 FILLER_102_987
*790 FILLER_102_994
*791 FILLER_103_0
*792 FILLER_103_1001
*793 FILLER_103_1008
*794 FILLER_103_1015
*795 FILLER_103_1022
*796 FILLER_103_105
*797 FILLER_103_112
*798 FILLER_103_119
*799 FILLER_103_126
*800 FILLER_103_133
*801 FILLER_103_14
*802 FILLER_103_140
*803 FILLER_103_147
*804 FILLER_103_154
*805 FILLER_103_161
*806 FILLER_103_168
*807 FILLER_103_175
*808 FILLER_103_182
*809 FILLER_103_189
*810 FILLER_103_196
*811 FILLER_103_203
*812 FILLER_103_21
*813 FILLER_103_210
*814 FILLER_103_217
*815 FILLER_103_224
*816 FILLER_103_231
*817 FILLER_103_238
*818 FILLER_103_245
*819 FILLER_103_252
*820 FILLER_103_259
*821 FILLER_103_266
*822 FILLER_103_273
*823 FILLER_103_28
*824 FILLER_103_280
*825 FILLER_103_287
*826 FILLER_103_294
*827 FILLER_103_301
*828 FILLER_103_308
*829 FILLER_103_315
*830 FILLER_103_322
*831 FILLER_103_329
*832 FILLER_103_336
*833 FILLER_103_343
*834 FILLER_103_35
*835 FILLER_103_350
*836 FILLER_103_357
*837 FILLER_103_364
*838 FILLER_103_371
*839 FILLER_103_378
*840 FILLER_103_385
*841 FILLER_103_392
*842 FILLER_103_399
*843 FILLER_103_406
*844 FILLER_103_413
*845 FILLER_103_42
*846 FILLER_103_420
*847 FILLER_103_427
*848 FILLER_103_434
*849 FILLER_103_441
*850 FILLER_103_448
*851 FILLER_103_455
*852 FILLER_103_462
*853 FILLER_103_469
*854 FILLER_103_476
*855 FILLER_103_483
*856 FILLER_103_49
*857 FILLER_103_490
*858 FILLER_103_497
*859 FILLER_103_504
*860 FILLER_103_511
*861 FILLER_103_518
*862 FILLER_103_525
*863 FILLER_103_532
*864 FILLER_103_539
*865 FILLER_103_546
*866 FILLER_103_553
*867 FILLER_103_56
*868 FILLER_103_560
*869 FILLER_103_567
*870 FILLER_103_574
*871 FILLER_103_581
*872 FILLER_103_588
*873 FILLER_103_595
*874 FILLER_103_602
*875 FILLER_103_609
*876 FILLER_103_616
*877 FILLER_103_623
*878 FILLER_103_63
*879 FILLER_103_630
*880 FILLER_103_637
*881 FILLER_103_644
*882 FILLER_103_651
*883 FILLER_103_658
*884 FILLER_103_665
*885 FILLER_103_672
*886 FILLER_103_679
*887 FILLER_103_686
*888 FILLER_103_693
*889 FILLER_103_7
*890 FILLER_103_70
*891 FILLER_103_700
*892 FILLER_103_707
*893 FILLER_103_714
*894 FILLER_103_721
*895 FILLER_103_728
*896 FILLER_103_735
*897 FILLER_103_742
*898 FILLER_103_749
*899 FILLER_103_756
*900 FILLER_103_763
*901 FILLER_103_77
*902 FILLER_103_770
*903 FILLER_103_777
*904 FILLER_103_784
*905 FILLER_103_791
*906 FILLER_103_798
*907 FILLER_103_805
*908 FILLER_103_812
*909 FILLER_103_819
*910 FILLER_103_826
*911 FILLER_103_833
*912 FILLER_103_84
*913 FILLER_103_840
*914 FILLER_103_847
*915 FILLER_103_854
*916 FILLER_103_861
*917 FILLER_103_868
*918 FILLER_103_875
*919 FILLER_103_882
*920 FILLER_103_889
*921 FILLER_103_896
*922 FILLER_103_903
*923 FILLER_103_91
*924 FILLER_103_910
*925 FILLER_103_917
*926 FILLER_103_924
*927 FILLER_103_931
*928 FILLER_103_938
*929 FILLER_103_945
*930 FILLER_103_952
*931 FILLER_103_959
*932 FILLER_103_966
*933 FILLER_103_973
*934 FILLER_103_98
*935 FILLER_103_980
*936 FILLER_103_987
*937 FILLER_103_994
*938 FILLER_104_0
*939 FILLER_104_1001
*940 FILLER_104_1008
*941 FILLER_104_1015
*942 FILLER_104_1022
*943 FILLER_104_105
*944 FILLER_104_112
*945 FILLER_104_119
*946 FILLER_104_126
*947 FILLER_104_133
*948 FILLER_104_14
*949 FILLER_104_140
*950 FILLER_104_147
*951 FILLER_104_154
*952 FILLER_104_161
*953 FILLER_104_168
*954 FILLER_104_175
*955 FILLER_104_182
*956 FILLER_104_189
*957 FILLER_104_196
*958 FILLER_104_203
*959 FILLER_104_21
*960 FILLER_104_210
*961 FILLER_104_217
*962 FILLER_104_224
*963 FILLER_104_231
*964 FILLER_104_238
*965 FILLER_104_245
*966 FILLER_104_252
*967 FILLER_104_259
*968 FILLER_104_266
*969 FILLER_104_273
*970 FILLER_104_28
*971 FILLER_104_280
*972 FILLER_104_287
*973 FILLER_104_294
*974 FILLER_104_301
*975 FILLER_104_308
*976 FILLER_104_315
*977 FILLER_104_322
*978 FILLER_104_329
*979 FILLER_104_336
*980 FILLER_104_343
*981 FILLER_104_35
*982 FILLER_104_350
*983 FILLER_104_357
*984 FILLER_104_364
*985 FILLER_104_371
*986 FILLER_104_378
*987 FILLER_104_385
*988 FILLER_104_392
*989 FILLER_104_399
*990 FILLER_104_406
*991 FILLER_104_413
*992 FILLER_104_42
*993 FILLER_104_420
*994 FILLER_104_427
*995 FILLER_104_434
*996 FILLER_104_441
*997 FILLER_104_448
*998 FILLER_104_455
*999 FILLER_104_462
*1000 FILLER_104_469
*1001 FILLER_104_476
*1002 FILLER_104_483
*1003 FILLER_104_49
*1004 FILLER_104_490
*1005 FILLER_104_497
*1006 FILLER_104_504
*1007 FILLER_104_511
*1008 FILLER_104_518
*1009 FILLER_104_525
*1010 FILLER_104_532
*1011 FILLER_104_539
*1012 FILLER_104_546
*1013 FILLER_104_553
*1014 FILLER_104_56
*1015 FILLER_104_560
*1016 FILLER_104_567
*1017 FILLER_104_574
*1018 FILLER_104_581
*1019 FILLER_104_588
*1020 FILLER_104_595
*1021 FILLER_104_602
*1022 FILLER_104_609
*1023 FILLER_104_616
*1024 FILLER_104_623
*1025 FILLER_104_63
*1026 FILLER_104_630
*1027 FILLER_104_637
*1028 FILLER_104_644
*1029 FILLER_104_651
*1030 FILLER_104_658
*1031 FILLER_104_665
*1032 FILLER_104_672
*1033 FILLER_104_679
*1034 FILLER_104_686
*1035 FILLER_104_693
*1036 FILLER_104_7
*1037 FILLER_104_70
*1038 FILLER_104_700
*1039 FILLER_104_707
*1040 FILLER_104_714
*1041 FILLER_104_721
*1042 FILLER_104_728
*1043 FILLER_104_735
*1044 FILLER_104_742
*1045 FILLER_104_749
*1046 FILLER_104_756
*1047 FILLER_104_763
*1048 FILLER_104_77
*1049 FILLER_104_770
*1050 FILLER_104_777
*1051 FILLER_104_784
*1052 FILLER_104_791
*1053 FILLER_104_798
*1054 FILLER_104_805
*1055 FILLER_104_812
*1056 FILLER_104_819
*1057 FILLER_104_826
*1058 FILLER_104_833
*1059 FILLER_104_84
*1060 FILLER_104_840
*1061 FILLER_104_847
*1062 FILLER_104_854
*1063 FILLER_104_861
*1064 FILLER_104_868
*1065 FILLER_104_875
*1066 FILLER_104_882
*1067 FILLER_104_889
*1068 FILLER_104_896
*1069 FILLER_104_903
*1070 FILLER_104_91
*1071 FILLER_104_910
*1072 FILLER_104_917
*1073 FILLER_104_924
*1074 FILLER_104_931
*1075 FILLER_104_938
*1076 FILLER_104_945
*1077 FILLER_104_952
*1078 FILLER_104_959
*1079 FILLER_104_966
*1080 FILLER_104_973
*1081 FILLER_104_98
*1082 FILLER_104_980
*1083 FILLER_104_987
*1084 FILLER_104_994
*1085 FILLER_105_0
*1086 FILLER_105_1001
*1087 FILLER_105_1008
*1088 FILLER_105_1015
*1089 FILLER_105_1022
*1090 FILLER_105_105
*1091 FILLER_105_112
*1092 FILLER_105_119
*1093 FILLER_105_126
*1094 FILLER_105_133
*1095 FILLER_105_14
*1096 FILLER_105_140
*1097 FILLER_105_147
*1098 FILLER_105_154
*1099 FILLER_105_161
*1100 FILLER_105_168
*1101 FILLER_105_175
*1102 FILLER_105_182
*1103 FILLER_105_189
*1104 FILLER_105_196
*1105 FILLER_105_203
*1106 FILLER_105_21
*1107 FILLER_105_210
*1108 FILLER_105_217
*1109 FILLER_105_224
*1110 FILLER_105_231
*1111 FILLER_105_238
*1112 FILLER_105_245
*1113 FILLER_105_252
*1114 FILLER_105_259
*1115 FILLER_105_266
*1116 FILLER_105_273
*1117 FILLER_105_28
*1118 FILLER_105_280
*1119 FILLER_105_287
*1120 FILLER_105_294
*1121 FILLER_105_301
*1122 FILLER_105_308
*1123 FILLER_105_315
*1124 FILLER_105_322
*1125 FILLER_105_329
*1126 FILLER_105_336
*1127 FILLER_105_343
*1128 FILLER_105_35
*1129 FILLER_105_350
*1130 FILLER_105_357
*1131 FILLER_105_364
*1132 FILLER_105_371
*1133 FILLER_105_378
*1134 FILLER_105_385
*1135 FILLER_105_392
*1136 FILLER_105_399
*1137 FILLER_105_406
*1138 FILLER_105_413
*1139 FILLER_105_42
*1140 FILLER_105_420
*1141 FILLER_105_427
*1142 FILLER_105_434
*1143 FILLER_105_441
*1144 FILLER_105_448
*1145 FILLER_105_455
*1146 FILLER_105_462
*1147 FILLER_105_469
*1148 FILLER_105_476
*1149 FILLER_105_483
*1150 FILLER_105_49
*1151 FILLER_105_490
*1152 FILLER_105_497
*1153 FILLER_105_504
*1154 FILLER_105_511
*1155 FILLER_105_518
*1156 FILLER_105_525
*1157 FILLER_105_532
*1158 FILLER_105_539
*1159 FILLER_105_546
*1160 FILLER_105_553
*1161 FILLER_105_56
*1162 FILLER_105_560
*1163 FILLER_105_567
*1164 FILLER_105_574
*1165 FILLER_105_581
*1166 FILLER_105_588
*1167 FILLER_105_595
*1168 FILLER_105_602
*1169 FILLER_105_609
*1170 FILLER_105_616
*1171 FILLER_105_623
*1172 FILLER_105_63
*1173 FILLER_105_630
*1174 FILLER_105_637
*1175 FILLER_105_644
*1176 FILLER_105_651
*1177 FILLER_105_658
*1178 FILLER_105_665
*1179 FILLER_105_672
*1180 FILLER_105_679
*1181 FILLER_105_686
*1182 FILLER_105_693
*1183 FILLER_105_7
*1184 FILLER_105_70
*1185 FILLER_105_700
*1186 FILLER_105_707
*1187 FILLER_105_714
*1188 FILLER_105_721
*1189 FILLER_105_728
*1190 FILLER_105_735
*1191 FILLER_105_742
*1192 FILLER_105_749
*1193 FILLER_105_756
*1194 FILLER_105_763
*1195 FILLER_105_77
*1196 FILLER_105_770
*1197 FILLER_105_777
*1198 FILLER_105_784
*1199 FILLER_105_791
*1200 FILLER_105_798
*1201 FILLER_105_805
*1202 FILLER_105_812
*1203 FILLER_105_819
*1204 FILLER_105_826
*1205 FILLER_105_833
*1206 FILLER_105_84
*1207 FILLER_105_840
*1208 FILLER_105_847
*1209 FILLER_105_854
*1210 FILLER_105_861
*1211 FILLER_105_868
*1212 FILLER_105_875
*1213 FILLER_105_882
*1214 FILLER_105_889
*1215 FILLER_105_896
*1216 FILLER_105_903
*1217 FILLER_105_91
*1218 FILLER_105_910
*1219 FILLER_105_917
*1220 FILLER_105_924
*1221 FILLER_105_931
*1222 FILLER_105_938
*1223 FILLER_105_945
*1224 FILLER_105_952
*1225 FILLER_105_959
*1226 FILLER_105_966
*1227 FILLER_105_973
*1228 FILLER_105_98
*1229 FILLER_105_980
*1230 FILLER_105_987
*1231 FILLER_105_994
*1232 FILLER_106_0
*1233 FILLER_106_1001
*1234 FILLER_106_1008
*1235 FILLER_106_1015
*1236 FILLER_106_1022
*1237 FILLER_106_105
*1238 FILLER_106_112
*1239 FILLER_106_119
*1240 FILLER_106_126
*1241 FILLER_106_133
*1242 FILLER_106_14
*1243 FILLER_106_140
*1244 FILLER_106_147
*1245 FILLER_106_154
*1246 FILLER_106_161
*1247 FILLER_106_168
*1248 FILLER_106_175
*1249 FILLER_106_182
*1250 FILLER_106_189
*1251 FILLER_106_196
*1252 FILLER_106_203
*1253 FILLER_106_21
*1254 FILLER_106_210
*1255 FILLER_106_217
*1256 FILLER_106_224
*1257 FILLER_106_231
*1258 FILLER_106_238
*1259 FILLER_106_245
*1260 FILLER_106_252
*1261 FILLER_106_259
*1262 FILLER_106_266
*1263 FILLER_106_273
*1264 FILLER_106_28
*1265 FILLER_106_280
*1266 FILLER_106_287
*1267 FILLER_106_294
*1268 FILLER_106_301
*1269 FILLER_106_308
*1270 FILLER_106_315
*1271 FILLER_106_322
*1272 FILLER_106_329
*1273 FILLER_106_336
*1274 FILLER_106_343
*1275 FILLER_106_35
*1276 FILLER_106_350
*1277 FILLER_106_357
*1278 FILLER_106_364
*1279 FILLER_106_371
*1280 FILLER_106_378
*1281 FILLER_106_385
*1282 FILLER_106_392
*1283 FILLER_106_399
*1284 FILLER_106_406
*1285 FILLER_106_413
*1286 FILLER_106_42
*1287 FILLER_106_420
*1288 FILLER_106_427
*1289 FILLER_106_434
*1290 FILLER_106_441
*1291 FILLER_106_448
*1292 FILLER_106_455
*1293 FILLER_106_462
*1294 FILLER_106_469
*1295 FILLER_106_476
*1296 FILLER_106_483
*1297 FILLER_106_49
*1298 FILLER_106_490
*1299 FILLER_106_497
*1300 FILLER_106_504
*1301 FILLER_106_511
*1302 FILLER_106_518
*1303 FILLER_106_525
*1304 FILLER_106_532
*1305 FILLER_106_539
*1306 FILLER_106_546
*1307 FILLER_106_553
*1308 FILLER_106_56
*1309 FILLER_106_560
*1310 FILLER_106_567
*1311 FILLER_106_574
*1312 FILLER_106_581
*1313 FILLER_106_588
*1314 FILLER_106_595
*1315 FILLER_106_602
*1316 FILLER_106_609
*1317 FILLER_106_616
*1318 FILLER_106_623
*1319 FILLER_106_63
*1320 FILLER_106_630
*1321 FILLER_106_637
*1322 FILLER_106_644
*1323 FILLER_106_651
*1324 FILLER_106_658
*1325 FILLER_106_665
*1326 FILLER_106_672
*1327 FILLER_106_679
*1328 FILLER_106_686
*1329 FILLER_106_693
*1330 FILLER_106_7
*1331 FILLER_106_70
*1332 FILLER_106_700
*1333 FILLER_106_707
*1334 FILLER_106_714
*1335 FILLER_106_721
*1336 FILLER_106_728
*1337 FILLER_106_735
*1338 FILLER_106_742
*1339 FILLER_106_749
*1340 FILLER_106_756
*1341 FILLER_106_763
*1342 FILLER_106_77
*1343 FILLER_106_770
*1344 FILLER_106_777
*1345 FILLER_106_784
*1346 FILLER_106_791
*1347 FILLER_106_798
*1348 FILLER_106_805
*1349 FILLER_106_812
*1350 FILLER_106_819
*1351 FILLER_106_826
*1352 FILLER_106_833
*1353 FILLER_106_84
*1354 FILLER_106_840
*1355 FILLER_106_847
*1356 FILLER_106_854
*1357 FILLER_106_861
*1358 FILLER_106_868
*1359 FILLER_106_875
*1360 FILLER_106_882
*1361 FILLER_106_889
*1362 FILLER_106_896
*1363 FILLER_106_903
*1364 FILLER_106_91
*1365 FILLER_106_910
*1366 FILLER_106_917
*1367 FILLER_106_924
*1368 FILLER_106_931
*1369 FILLER_106_938
*1370 FILLER_106_945
*1371 FILLER_106_952
*1372 FILLER_106_959
*1373 FILLER_106_966
*1374 FILLER_106_973
*1375 FILLER_106_98
*1376 FILLER_106_980
*1377 FILLER_106_987
*1378 FILLER_106_994
*1379 FILLER_10_1005
*1380 FILLER_10_1012
*1381 FILLER_10_1019
*1382 FILLER_10_102
*1383 FILLER_10_1026
*1384 FILLER_10_1028
*1385 FILLER_10_109
*1386 FILLER_10_11
*1387 FILLER_10_116
*1388 FILLER_10_123
*1389 FILLER_10_130
*1390 FILLER_10_137
*1391 FILLER_10_144
*1392 FILLER_10_151
*1393 FILLER_10_158
*1394 FILLER_10_165
*1395 FILLER_10_172
*1396 FILLER_10_179
*1397 FILLER_10_18
*1398 FILLER_10_186
*1399 FILLER_10_193
*1400 FILLER_10_200
*1401 FILLER_10_207
*1402 FILLER_10_214
*1403 FILLER_10_221
*1404 FILLER_10_228
*1405 FILLER_10_235
*1406 FILLER_10_242
*1407 FILLER_10_249
*1408 FILLER_10_25
*1409 FILLER_10_256
*1410 FILLER_10_263
*1411 FILLER_10_270
*1412 FILLER_10_277
*1413 FILLER_10_284
*1414 FILLER_10_291
*1415 FILLER_10_298
*1416 FILLER_10_305
*1417 FILLER_10_312
*1418 FILLER_10_319
*1419 FILLER_10_32
*1420 FILLER_10_326
*1421 FILLER_10_333
*1422 FILLER_10_340
*1423 FILLER_10_347
*1424 FILLER_10_354
*1425 FILLER_10_361
*1426 FILLER_10_368
*1427 FILLER_10_375
*1428 FILLER_10_382
*1429 FILLER_10_389
*1430 FILLER_10_39
*1431 FILLER_10_396
*1432 FILLER_10_4
*1433 FILLER_10_403
*1434 FILLER_10_410
*1435 FILLER_10_417
*1436 FILLER_10_424
*1437 FILLER_10_431
*1438 FILLER_10_438
*1439 FILLER_10_445
*1440 FILLER_10_452
*1441 FILLER_10_459
*1442 FILLER_10_46
*1443 FILLER_10_466
*1444 FILLER_10_473
*1445 FILLER_10_480
*1446 FILLER_10_487
*1447 FILLER_10_494
*1448 FILLER_10_501
*1449 FILLER_10_508
*1450 FILLER_10_515
*1451 FILLER_10_522
*1452 FILLER_10_529
*1453 FILLER_10_53
*1454 FILLER_10_536
*1455 FILLER_10_543
*1456 FILLER_10_550
*1457 FILLER_10_557
*1458 FILLER_10_564
*1459 FILLER_10_571
*1460 FILLER_10_578
*1461 FILLER_10_585
*1462 FILLER_10_592
*1463 FILLER_10_599
*1464 FILLER_10_60
*1465 FILLER_10_606
*1466 FILLER_10_613
*1467 FILLER_10_620
*1468 FILLER_10_627
*1469 FILLER_10_634
*1470 FILLER_10_641
*1471 FILLER_10_648
*1472 FILLER_10_655
*1473 FILLER_10_662
*1474 FILLER_10_669
*1475 FILLER_10_67
*1476 FILLER_10_676
*1477 FILLER_10_683
*1478 FILLER_10_690
*1479 FILLER_10_697
*1480 FILLER_10_704
*1481 FILLER_10_711
*1482 FILLER_10_718
*1483 FILLER_10_725
*1484 FILLER_10_732
*1485 FILLER_10_739
*1486 FILLER_10_74
*1487 FILLER_10_746
*1488 FILLER_10_753
*1489 FILLER_10_760
*1490 FILLER_10_767
*1491 FILLER_10_774
*1492 FILLER_10_781
*1493 FILLER_10_788
*1494 FILLER_10_795
*1495 FILLER_10_802
*1496 FILLER_10_809
*1497 FILLER_10_81
*1498 FILLER_10_816
*1499 FILLER_10_823
*1500 FILLER_10_830
*1501 FILLER_10_837
*1502 FILLER_10_844
*1503 FILLER_10_851
*1504 FILLER_10_858
*1505 FILLER_10_865
*1506 FILLER_10_872
*1507 FILLER_10_879
*1508 FILLER_10_88
*1509 FILLER_10_886
*1510 FILLER_10_893
*1511 FILLER_10_900
*1512 FILLER_10_907
*1513 FILLER_10_914
*1514 FILLER_10_921
*1515 FILLER_10_928
*1516 FILLER_10_935
*1517 FILLER_10_942
*1518 FILLER_10_949
*1519 FILLER_10_95
*1520 FILLER_10_956
*1521 FILLER_10_963
*1522 FILLER_10_970
*1523 FILLER_10_977
*1524 FILLER_10_984
*1525 FILLER_10_991
*1526 FILLER_10_998
*1527 FILLER_11_0
*1528 FILLER_11_1001
*1529 FILLER_11_1008
*1530 FILLER_11_1015
*1531 FILLER_11_1022
*1532 FILLER_11_105
*1533 FILLER_11_112
*1534 FILLER_11_119
*1535 FILLER_11_126
*1536 FILLER_11_133
*1537 FILLER_11_14
*1538 FILLER_11_140
*1539 FILLER_11_147
*1540 FILLER_11_154
*1541 FILLER_11_161
*1542 FILLER_11_168
*1543 FILLER_11_175
*1544 FILLER_11_182
*1545 FILLER_11_189
*1546 FILLER_11_196
*1547 FILLER_11_203
*1548 FILLER_11_21
*1549 FILLER_11_210
*1550 FILLER_11_217
*1551 FILLER_11_224
*1552 FILLER_11_231
*1553 FILLER_11_238
*1554 FILLER_11_245
*1555 FILLER_11_252
*1556 FILLER_11_259
*1557 FILLER_11_266
*1558 FILLER_11_273
*1559 FILLER_11_28
*1560 FILLER_11_280
*1561 FILLER_11_287
*1562 FILLER_11_294
*1563 FILLER_11_301
*1564 FILLER_11_308
*1565 FILLER_11_315
*1566 FILLER_11_322
*1567 FILLER_11_329
*1568 FILLER_11_336
*1569 FILLER_11_343
*1570 FILLER_11_35
*1571 FILLER_11_350
*1572 FILLER_11_357
*1573 FILLER_11_364
*1574 FILLER_11_371
*1575 FILLER_11_378
*1576 FILLER_11_385
*1577 FILLER_11_392
*1578 FILLER_11_399
*1579 FILLER_11_406
*1580 FILLER_11_413
*1581 FILLER_11_42
*1582 FILLER_11_420
*1583 FILLER_11_427
*1584 FILLER_11_434
*1585 FILLER_11_441
*1586 FILLER_11_448
*1587 FILLER_11_455
*1588 FILLER_11_462
*1589 FILLER_11_469
*1590 FILLER_11_476
*1591 FILLER_11_483
*1592 FILLER_11_49
*1593 FILLER_11_490
*1594 FILLER_11_497
*1595 FILLER_11_504
*1596 FILLER_11_511
*1597 FILLER_11_518
*1598 FILLER_11_525
*1599 FILLER_11_532
*1600 FILLER_11_539
*1601 FILLER_11_546
*1602 FILLER_11_553
*1603 FILLER_11_56
*1604 FILLER_11_560
*1605 FILLER_11_567
*1606 FILLER_11_574
*1607 FILLER_11_581
*1608 FILLER_11_588
*1609 FILLER_11_595
*1610 FILLER_11_602
*1611 FILLER_11_609
*1612 FILLER_11_616
*1613 FILLER_11_623
*1614 FILLER_11_63
*1615 FILLER_11_630
*1616 FILLER_11_637
*1617 FILLER_11_644
*1618 FILLER_11_651
*1619 FILLER_11_658
*1620 FILLER_11_665
*1621 FILLER_11_672
*1622 FILLER_11_679
*1623 FILLER_11_686
*1624 FILLER_11_693
*1625 FILLER_11_7
*1626 FILLER_11_70
*1627 FILLER_11_700
*1628 FILLER_11_707
*1629 FILLER_11_714
*1630 FILLER_11_721
*1631 FILLER_11_728
*1632 FILLER_11_735
*1633 FILLER_11_742
*1634 FILLER_11_749
*1635 FILLER_11_756
*1636 FILLER_11_763
*1637 FILLER_11_77
*1638 FILLER_11_770
*1639 FILLER_11_777
*1640 FILLER_11_784
*1641 FILLER_11_791
*1642 FILLER_11_798
*1643 FILLER_11_805
*1644 FILLER_11_812
*1645 FILLER_11_819
*1646 FILLER_11_826
*1647 FILLER_11_833
*1648 FILLER_11_84
*1649 FILLER_11_840
*1650 FILLER_11_847
*1651 FILLER_11_854
*1652 FILLER_11_861
*1653 FILLER_11_868
*1654 FILLER_11_875
*1655 FILLER_11_882
*1656 FILLER_11_889
*1657 FILLER_11_896
*1658 FILLER_11_903
*1659 FILLER_11_91
*1660 FILLER_11_910
*1661 FILLER_11_917
*1662 FILLER_11_924
*1663 FILLER_11_931
*1664 FILLER_11_938
*1665 FILLER_11_945
*1666 FILLER_11_952
*1667 FILLER_11_959
*1668 FILLER_11_966
*1669 FILLER_11_973
*1670 FILLER_11_98
*1671 FILLER_11_980
*1672 FILLER_11_987
*1673 FILLER_11_994
*1674 FILLER_12_1005
*1675 FILLER_12_1012
*1676 FILLER_12_1019
*1677 FILLER_12_102
*1678 FILLER_12_1026
*1679 FILLER_12_1028
*1680 FILLER_12_109
*1681 FILLER_12_11
*1682 FILLER_12_116
*1683 FILLER_12_123
*1684 FILLER_12_130
*1685 FILLER_12_137
*1686 FILLER_12_144
*1687 FILLER_12_151
*1688 FILLER_12_158
*1689 FILLER_12_165
*1690 FILLER_12_172
*1691 FILLER_12_179
*1692 FILLER_12_18
*1693 FILLER_12_186
*1694 FILLER_12_193
*1695 FILLER_12_200
*1696 FILLER_12_207
*1697 FILLER_12_214
*1698 FILLER_12_221
*1699 FILLER_12_228
*1700 FILLER_12_235
*1701 FILLER_12_242
*1702 FILLER_12_249
*1703 FILLER_12_25
*1704 FILLER_12_256
*1705 FILLER_12_263
*1706 FILLER_12_270
*1707 FILLER_12_277
*1708 FILLER_12_284
*1709 FILLER_12_291
*1710 FILLER_12_298
*1711 FILLER_12_305
*1712 FILLER_12_312
*1713 FILLER_12_319
*1714 FILLER_12_32
*1715 FILLER_12_326
*1716 FILLER_12_333
*1717 FILLER_12_340
*1718 FILLER_12_347
*1719 FILLER_12_354
*1720 FILLER_12_361
*1721 FILLER_12_368
*1722 FILLER_12_375
*1723 FILLER_12_382
*1724 FILLER_12_389
*1725 FILLER_12_39
*1726 FILLER_12_396
*1727 FILLER_12_4
*1728 FILLER_12_403
*1729 FILLER_12_410
*1730 FILLER_12_417
*1731 FILLER_12_424
*1732 FILLER_12_431
*1733 FILLER_12_438
*1734 FILLER_12_445
*1735 FILLER_12_452
*1736 FILLER_12_459
*1737 FILLER_12_46
*1738 FILLER_12_466
*1739 FILLER_12_473
*1740 FILLER_12_480
*1741 FILLER_12_487
*1742 FILLER_12_494
*1743 FILLER_12_501
*1744 FILLER_12_508
*1745 FILLER_12_515
*1746 FILLER_12_522
*1747 FILLER_12_529
*1748 FILLER_12_53
*1749 FILLER_12_536
*1750 FILLER_12_543
*1751 FILLER_12_550
*1752 FILLER_12_557
*1753 FILLER_12_564
*1754 FILLER_12_571
*1755 FILLER_12_578
*1756 FILLER_12_585
*1757 FILLER_12_592
*1758 FILLER_12_599
*1759 FILLER_12_60
*1760 FILLER_12_606
*1761 FILLER_12_613
*1762 FILLER_12_620
*1763 FILLER_12_627
*1764 FILLER_12_634
*1765 FILLER_12_641
*1766 FILLER_12_648
*1767 FILLER_12_655
*1768 FILLER_12_662
*1769 FILLER_12_669
*1770 FILLER_12_67
*1771 FILLER_12_676
*1772 FILLER_12_683
*1773 FILLER_12_690
*1774 FILLER_12_697
*1775 FILLER_12_704
*1776 FILLER_12_711
*1777 FILLER_12_718
*1778 FILLER_12_725
*1779 FILLER_12_732
*1780 FILLER_12_739
*1781 FILLER_12_74
*1782 FILLER_12_746
*1783 FILLER_12_753
*1784 FILLER_12_760
*1785 FILLER_12_767
*1786 FILLER_12_774
*1787 FILLER_12_781
*1788 FILLER_12_788
*1789 FILLER_12_795
*1790 FILLER_12_802
*1791 FILLER_12_809
*1792 FILLER_12_81
*1793 FILLER_12_816
*1794 FILLER_12_823
*1795 FILLER_12_830
*1796 FILLER_12_837
*1797 FILLER_12_844
*1798 FILLER_12_851
*1799 FILLER_12_858
*1800 FILLER_12_865
*1801 FILLER_12_872
*1802 FILLER_12_879
*1803 FILLER_12_88
*1804 FILLER_12_886
*1805 FILLER_12_893
*1806 FILLER_12_900
*1807 FILLER_12_907
*1808 FILLER_12_914
*1809 FILLER_12_921
*1810 FILLER_12_928
*1811 FILLER_12_935
*1812 FILLER_12_942
*1813 FILLER_12_949
*1814 FILLER_12_95
*1815 FILLER_12_956
*1816 FILLER_12_963
*1817 FILLER_12_970
*1818 FILLER_12_977
*1819 FILLER_12_984
*1820 FILLER_12_991
*1821 FILLER_12_998
*1822 FILLER_13_1005
*1823 FILLER_13_1012
*1824 FILLER_13_1019
*1825 FILLER_13_102
*1826 FILLER_13_1026
*1827 FILLER_13_1028
*1828 FILLER_13_109
*1829 FILLER_13_11
*1830 FILLER_13_116
*1831 FILLER_13_123
*1832 FILLER_13_130
*1833 FILLER_13_137
*1834 FILLER_13_144
*1835 FILLER_13_151
*1836 FILLER_13_158
*1837 FILLER_13_165
*1838 FILLER_13_172
*1839 FILLER_13_179
*1840 FILLER_13_18
*1841 FILLER_13_186
*1842 FILLER_13_193
*1843 FILLER_13_200
*1844 FILLER_13_207
*1845 FILLER_13_214
*1846 FILLER_13_221
*1847 FILLER_13_228
*1848 FILLER_13_235
*1849 FILLER_13_242
*1850 FILLER_13_249
*1851 FILLER_13_25
*1852 FILLER_13_256
*1853 FILLER_13_263
*1854 FILLER_13_270
*1855 FILLER_13_277
*1856 FILLER_13_284
*1857 FILLER_13_291
*1858 FILLER_13_298
*1859 FILLER_13_305
*1860 FILLER_13_312
*1861 FILLER_13_319
*1862 FILLER_13_32
*1863 FILLER_13_326
*1864 FILLER_13_333
*1865 FILLER_13_340
*1866 FILLER_13_347
*1867 FILLER_13_354
*1868 FILLER_13_361
*1869 FILLER_13_368
*1870 FILLER_13_375
*1871 FILLER_13_382
*1872 FILLER_13_389
*1873 FILLER_13_39
*1874 FILLER_13_396
*1875 FILLER_13_4
*1876 FILLER_13_403
*1877 FILLER_13_410
*1878 FILLER_13_417
*1879 FILLER_13_424
*1880 FILLER_13_431
*1881 FILLER_13_438
*1882 FILLER_13_445
*1883 FILLER_13_452
*1884 FILLER_13_459
*1885 FILLER_13_46
*1886 FILLER_13_466
*1887 FILLER_13_473
*1888 FILLER_13_480
*1889 FILLER_13_487
*1890 FILLER_13_494
*1891 FILLER_13_501
*1892 FILLER_13_508
*1893 FILLER_13_515
*1894 FILLER_13_522
*1895 FILLER_13_529
*1896 FILLER_13_53
*1897 FILLER_13_536
*1898 FILLER_13_543
*1899 FILLER_13_550
*1900 FILLER_13_557
*1901 FILLER_13_564
*1902 FILLER_13_571
*1903 FILLER_13_578
*1904 FILLER_13_585
*1905 FILLER_13_592
*1906 FILLER_13_599
*1907 FILLER_13_60
*1908 FILLER_13_606
*1909 FILLER_13_613
*1910 FILLER_13_620
*1911 FILLER_13_627
*1912 FILLER_13_634
*1913 FILLER_13_641
*1914 FILLER_13_648
*1915 FILLER_13_655
*1916 FILLER_13_662
*1917 FILLER_13_669
*1918 FILLER_13_67
*1919 FILLER_13_676
*1920 FILLER_13_683
*1921 FILLER_13_690
*1922 FILLER_13_697
*1923 FILLER_13_704
*1924 FILLER_13_711
*1925 FILLER_13_718
*1926 FILLER_13_725
*1927 FILLER_13_732
*1928 FILLER_13_739
*1929 FILLER_13_74
*1930 FILLER_13_746
*1931 FILLER_13_753
*1932 FILLER_13_760
*1933 FILLER_13_767
*1934 FILLER_13_774
*1935 FILLER_13_781
*1936 FILLER_13_788
*1937 FILLER_13_795
*1938 FILLER_13_802
*1939 FILLER_13_809
*1940 FILLER_13_81
*1941 FILLER_13_816
*1942 FILLER_13_823
*1943 FILLER_13_830
*1944 FILLER_13_837
*1945 FILLER_13_844
*1946 FILLER_13_851
*1947 FILLER_13_858
*1948 FILLER_13_865
*1949 FILLER_13_872
*1950 FILLER_13_879
*1951 FILLER_13_88
*1952 FILLER_13_886
*1953 FILLER_13_893
*1954 FILLER_13_900
*1955 FILLER_13_907
*1956 FILLER_13_914
*1957 FILLER_13_921
*1958 FILLER_13_928
*1959 FILLER_13_935
*1960 FILLER_13_942
*1961 FILLER_13_949
*1962 FILLER_13_95
*1963 FILLER_13_956
*1964 FILLER_13_963
*1965 FILLER_13_970
*1966 FILLER_13_977
*1967 FILLER_13_984
*1968 FILLER_13_991
*1969 FILLER_13_998
*1970 FILLER_14_1005
*1971 FILLER_14_1012
*1972 FILLER_14_1019
*1973 FILLER_14_102
*1974 FILLER_14_1026
*1975 FILLER_14_1028
*1976 FILLER_14_109
*1977 FILLER_14_11
*1978 FILLER_14_116
*1979 FILLER_14_123
*1980 FILLER_14_130
*1981 FILLER_14_137
*1982 FILLER_14_144
*1983 FILLER_14_151
*1984 FILLER_14_158
*1985 FILLER_14_165
*1986 FILLER_14_172
*1987 FILLER_14_179
*1988 FILLER_14_18
*1989 FILLER_14_186
*1990 FILLER_14_193
*1991 FILLER_14_200
*1992 FILLER_14_207
*1993 FILLER_14_214
*1994 FILLER_14_221
*1995 FILLER_14_228
*1996 FILLER_14_235
*1997 FILLER_14_242
*1998 FILLER_14_249
*1999 FILLER_14_25
*2000 FILLER_14_256
*2001 FILLER_14_263
*2002 FILLER_14_270
*2003 FILLER_14_277
*2004 FILLER_14_284
*2005 FILLER_14_291
*2006 FILLER_14_298
*2007 FILLER_14_305
*2008 FILLER_14_312
*2009 FILLER_14_319
*2010 FILLER_14_32
*2011 FILLER_14_326
*2012 FILLER_14_333
*2013 FILLER_14_340
*2014 FILLER_14_347
*2015 FILLER_14_354
*2016 FILLER_14_361
*2017 FILLER_14_368
*2018 FILLER_14_375
*2019 FILLER_14_382
*2020 FILLER_14_389
*2021 FILLER_14_39
*2022 FILLER_14_396
*2023 FILLER_14_4
*2024 FILLER_14_403
*2025 FILLER_14_410
*2026 FILLER_14_417
*2027 FILLER_14_424
*2028 FILLER_14_431
*2029 FILLER_14_438
*2030 FILLER_14_445
*2031 FILLER_14_452
*2032 FILLER_14_459
*2033 FILLER_14_46
*2034 FILLER_14_466
*2035 FILLER_14_473
*2036 FILLER_14_480
*2037 FILLER_14_487
*2038 FILLER_14_494
*2039 FILLER_14_501
*2040 FILLER_14_508
*2041 FILLER_14_515
*2042 FILLER_14_522
*2043 FILLER_14_529
*2044 FILLER_14_53
*2045 FILLER_14_536
*2046 FILLER_14_543
*2047 FILLER_14_550
*2048 FILLER_14_557
*2049 FILLER_14_564
*2050 FILLER_14_571
*2051 FILLER_14_578
*2052 FILLER_14_585
*2053 FILLER_14_592
*2054 FILLER_14_599
*2055 FILLER_14_60
*2056 FILLER_14_606
*2057 FILLER_14_613
*2058 FILLER_14_620
*2059 FILLER_14_627
*2060 FILLER_14_634
*2061 FILLER_14_641
*2062 FILLER_14_648
*2063 FILLER_14_655
*2064 FILLER_14_662
*2065 FILLER_14_669
*2066 FILLER_14_67
*2067 FILLER_14_676
*2068 FILLER_14_683
*2069 FILLER_14_690
*2070 FILLER_14_697
*2071 FILLER_14_704
*2072 FILLER_14_711
*2073 FILLER_14_718
*2074 FILLER_14_725
*2075 FILLER_14_732
*2076 FILLER_14_739
*2077 FILLER_14_74
*2078 FILLER_14_746
*2079 FILLER_14_753
*2080 FILLER_14_760
*2081 FILLER_14_767
*2082 FILLER_14_774
*2083 FILLER_14_781
*2084 FILLER_14_788
*2085 FILLER_14_795
*2086 FILLER_14_802
*2087 FILLER_14_809
*2088 FILLER_14_81
*2089 FILLER_14_816
*2090 FILLER_14_823
*2091 FILLER_14_830
*2092 FILLER_14_837
*2093 FILLER_14_844
*2094 FILLER_14_851
*2095 FILLER_14_858
*2096 FILLER_14_865
*2097 FILLER_14_872
*2098 FILLER_14_879
*2099 FILLER_14_88
*2100 FILLER_14_886
*2101 FILLER_14_893
*2102 FILLER_14_900
*2103 FILLER_14_907
*2104 FILLER_14_914
*2105 FILLER_14_921
*2106 FILLER_14_928
*2107 FILLER_14_935
*2108 FILLER_14_942
*2109 FILLER_14_949
*2110 FILLER_14_95
*2111 FILLER_14_956
*2112 FILLER_14_963
*2113 FILLER_14_970
*2114 FILLER_14_977
*2115 FILLER_14_984
*2116 FILLER_14_991
*2117 FILLER_14_998
*2118 FILLER_15_1005
*2119 FILLER_15_1012
*2120 FILLER_15_1019
*2121 FILLER_15_102
*2122 FILLER_15_1026
*2123 FILLER_15_1028
*2124 FILLER_15_109
*2125 FILLER_15_11
*2126 FILLER_15_116
*2127 FILLER_15_123
*2128 FILLER_15_130
*2129 FILLER_15_137
*2130 FILLER_15_144
*2131 FILLER_15_151
*2132 FILLER_15_158
*2133 FILLER_15_165
*2134 FILLER_15_172
*2135 FILLER_15_179
*2136 FILLER_15_18
*2137 FILLER_15_186
*2138 FILLER_15_193
*2139 FILLER_15_200
*2140 FILLER_15_207
*2141 FILLER_15_214
*2142 FILLER_15_221
*2143 FILLER_15_228
*2144 FILLER_15_235
*2145 FILLER_15_242
*2146 FILLER_15_249
*2147 FILLER_15_25
*2148 FILLER_15_256
*2149 FILLER_15_263
*2150 FILLER_15_270
*2151 FILLER_15_277
*2152 FILLER_15_284
*2153 FILLER_15_291
*2154 FILLER_15_298
*2155 FILLER_15_305
*2156 FILLER_15_312
*2157 FILLER_15_319
*2158 FILLER_15_32
*2159 FILLER_15_326
*2160 FILLER_15_333
*2161 FILLER_15_340
*2162 FILLER_15_347
*2163 FILLER_15_354
*2164 FILLER_15_361
*2165 FILLER_15_368
*2166 FILLER_15_375
*2167 FILLER_15_382
*2168 FILLER_15_389
*2169 FILLER_15_39
*2170 FILLER_15_396
*2171 FILLER_15_4
*2172 FILLER_15_403
*2173 FILLER_15_410
*2174 FILLER_15_417
*2175 FILLER_15_424
*2176 FILLER_15_431
*2177 FILLER_15_438
*2178 FILLER_15_445
*2179 FILLER_15_452
*2180 FILLER_15_459
*2181 FILLER_15_46
*2182 FILLER_15_466
*2183 FILLER_15_473
*2184 FILLER_15_480
*2185 FILLER_15_487
*2186 FILLER_15_494
*2187 FILLER_15_501
*2188 FILLER_15_508
*2189 FILLER_15_515
*2190 FILLER_15_522
*2191 FILLER_15_529
*2192 FILLER_15_53
*2193 FILLER_15_536
*2194 FILLER_15_543
*2195 FILLER_15_550
*2196 FILLER_15_557
*2197 FILLER_15_564
*2198 FILLER_15_571
*2199 FILLER_15_578
*2200 FILLER_15_585
*2201 FILLER_15_592
*2202 FILLER_15_599
*2203 FILLER_15_60
*2204 FILLER_15_606
*2205 FILLER_15_613
*2206 FILLER_15_620
*2207 FILLER_15_627
*2208 FILLER_15_634
*2209 FILLER_15_641
*2210 FILLER_15_648
*2211 FILLER_15_655
*2212 FILLER_15_662
*2213 FILLER_15_669
*2214 FILLER_15_67
*2215 FILLER_15_676
*2216 FILLER_15_683
*2217 FILLER_15_690
*2218 FILLER_15_697
*2219 FILLER_15_704
*2220 FILLER_15_711
*2221 FILLER_15_718
*2222 FILLER_15_725
*2223 FILLER_15_732
*2224 FILLER_15_739
*2225 FILLER_15_74
*2226 FILLER_15_746
*2227 FILLER_15_753
*2228 FILLER_15_760
*2229 FILLER_15_767
*2230 FILLER_15_774
*2231 FILLER_15_781
*2232 FILLER_15_788
*2233 FILLER_15_795
*2234 FILLER_15_802
*2235 FILLER_15_809
*2236 FILLER_15_81
*2237 FILLER_15_816
*2238 FILLER_15_823
*2239 FILLER_15_830
*2240 FILLER_15_837
*2241 FILLER_15_844
*2242 FILLER_15_851
*2243 FILLER_15_858
*2244 FILLER_15_865
*2245 FILLER_15_872
*2246 FILLER_15_879
*2247 FILLER_15_88
*2248 FILLER_15_886
*2249 FILLER_15_893
*2250 FILLER_15_900
*2251 FILLER_15_907
*2252 FILLER_15_914
*2253 FILLER_15_921
*2254 FILLER_15_928
*2255 FILLER_15_935
*2256 FILLER_15_942
*2257 FILLER_15_949
*2258 FILLER_15_95
*2259 FILLER_15_956
*2260 FILLER_15_963
*2261 FILLER_15_970
*2262 FILLER_15_977
*2263 FILLER_15_984
*2264 FILLER_15_991
*2265 FILLER_15_998
*2266 FILLER_16_1005
*2267 FILLER_16_1012
*2268 FILLER_16_1019
*2269 FILLER_16_102
*2270 FILLER_16_1026
*2271 FILLER_16_1028
*2272 FILLER_16_109
*2273 FILLER_16_11
*2274 FILLER_16_116
*2275 FILLER_16_123
*2276 FILLER_16_130
*2277 FILLER_16_137
*2278 FILLER_16_144
*2279 FILLER_16_151
*2280 FILLER_16_158
*2281 FILLER_16_165
*2282 FILLER_16_172
*2283 FILLER_16_179
*2284 FILLER_16_18
*2285 FILLER_16_186
*2286 FILLER_16_193
*2287 FILLER_16_200
*2288 FILLER_16_207
*2289 FILLER_16_214
*2290 FILLER_16_221
*2291 FILLER_16_228
*2292 FILLER_16_235
*2293 FILLER_16_242
*2294 FILLER_16_249
*2295 FILLER_16_25
*2296 FILLER_16_256
*2297 FILLER_16_263
*2298 FILLER_16_270
*2299 FILLER_16_277
*2300 FILLER_16_284
*2301 FILLER_16_291
*2302 FILLER_16_298
*2303 FILLER_16_305
*2304 FILLER_16_312
*2305 FILLER_16_319
*2306 FILLER_16_32
*2307 FILLER_16_326
*2308 FILLER_16_333
*2309 FILLER_16_340
*2310 FILLER_16_347
*2311 FILLER_16_354
*2312 FILLER_16_361
*2313 FILLER_16_368
*2314 FILLER_16_375
*2315 FILLER_16_382
*2316 FILLER_16_389
*2317 FILLER_16_39
*2318 FILLER_16_396
*2319 FILLER_16_4
*2320 FILLER_16_403
*2321 FILLER_16_410
*2322 FILLER_16_417
*2323 FILLER_16_424
*2324 FILLER_16_431
*2325 FILLER_16_438
*2326 FILLER_16_445
*2327 FILLER_16_452
*2328 FILLER_16_459
*2329 FILLER_16_46
*2330 FILLER_16_466
*2331 FILLER_16_473
*2332 FILLER_16_480
*2333 FILLER_16_487
*2334 FILLER_16_494
*2335 FILLER_16_501
*2336 FILLER_16_508
*2337 FILLER_16_515
*2338 FILLER_16_522
*2339 FILLER_16_529
*2340 FILLER_16_53
*2341 FILLER_16_536
*2342 FILLER_16_543
*2343 FILLER_16_550
*2344 FILLER_16_557
*2345 FILLER_16_564
*2346 FILLER_16_571
*2347 FILLER_16_578
*2348 FILLER_16_585
*2349 FILLER_16_592
*2350 FILLER_16_599
*2351 FILLER_16_60
*2352 FILLER_16_606
*2353 FILLER_16_613
*2354 FILLER_16_620
*2355 FILLER_16_627
*2356 FILLER_16_634
*2357 FILLER_16_641
*2358 FILLER_16_648
*2359 FILLER_16_655
*2360 FILLER_16_662
*2361 FILLER_16_669
*2362 FILLER_16_67
*2363 FILLER_16_676
*2364 FILLER_16_683
*2365 FILLER_16_690
*2366 FILLER_16_697
*2367 FILLER_16_704
*2368 FILLER_16_711
*2369 FILLER_16_718
*2370 FILLER_16_725
*2371 FILLER_16_732
*2372 FILLER_16_739
*2373 FILLER_16_74
*2374 FILLER_16_746
*2375 FILLER_16_753
*2376 FILLER_16_760
*2377 FILLER_16_767
*2378 FILLER_16_774
*2379 FILLER_16_781
*2380 FILLER_16_788
*2381 FILLER_16_795
*2382 FILLER_16_802
*2383 FILLER_16_809
*2384 FILLER_16_81
*2385 FILLER_16_816
*2386 FILLER_16_823
*2387 FILLER_16_830
*2388 FILLER_16_837
*2389 FILLER_16_844
*2390 FILLER_16_851
*2391 FILLER_16_858
*2392 FILLER_16_865
*2393 FILLER_16_872
*2394 FILLER_16_879
*2395 FILLER_16_88
*2396 FILLER_16_886
*2397 FILLER_16_893
*2398 FILLER_16_900
*2399 FILLER_16_907
*2400 FILLER_16_914
*2401 FILLER_16_921
*2402 FILLER_16_928
*2403 FILLER_16_935
*2404 FILLER_16_942
*2405 FILLER_16_949
*2406 FILLER_16_95
*2407 FILLER_16_956
*2408 FILLER_16_963
*2409 FILLER_16_970
*2410 FILLER_16_977
*2411 FILLER_16_984
*2412 FILLER_16_991
*2413 FILLER_16_998
*2414 FILLER_17_1005
*2415 FILLER_17_1012
*2416 FILLER_17_1019
*2417 FILLER_17_102
*2418 FILLER_17_1026
*2419 FILLER_17_1028
*2420 FILLER_17_109
*2421 FILLER_17_11
*2422 FILLER_17_116
*2423 FILLER_17_123
*2424 FILLER_17_130
*2425 FILLER_17_137
*2426 FILLER_17_144
*2427 FILLER_17_151
*2428 FILLER_17_158
*2429 FILLER_17_165
*2430 FILLER_17_172
*2431 FILLER_17_179
*2432 FILLER_17_18
*2433 FILLER_17_186
*2434 FILLER_17_193
*2435 FILLER_17_200
*2436 FILLER_17_207
*2437 FILLER_17_214
*2438 FILLER_17_221
*2439 FILLER_17_228
*2440 FILLER_17_235
*2441 FILLER_17_242
*2442 FILLER_17_249
*2443 FILLER_17_25
*2444 FILLER_17_256
*2445 FILLER_17_263
*2446 FILLER_17_270
*2447 FILLER_17_277
*2448 FILLER_17_284
*2449 FILLER_17_291
*2450 FILLER_17_298
*2451 FILLER_17_305
*2452 FILLER_17_312
*2453 FILLER_17_319
*2454 FILLER_17_32
*2455 FILLER_17_326
*2456 FILLER_17_333
*2457 FILLER_17_340
*2458 FILLER_17_347
*2459 FILLER_17_354
*2460 FILLER_17_361
*2461 FILLER_17_368
*2462 FILLER_17_375
*2463 FILLER_17_382
*2464 FILLER_17_389
*2465 FILLER_17_39
*2466 FILLER_17_396
*2467 FILLER_17_4
*2468 FILLER_17_403
*2469 FILLER_17_410
*2470 FILLER_17_417
*2471 FILLER_17_424
*2472 FILLER_17_431
*2473 FILLER_17_438
*2474 FILLER_17_445
*2475 FILLER_17_452
*2476 FILLER_17_459
*2477 FILLER_17_46
*2478 FILLER_17_466
*2479 FILLER_17_473
*2480 FILLER_17_480
*2481 FILLER_17_487
*2482 FILLER_17_494
*2483 FILLER_17_501
*2484 FILLER_17_508
*2485 FILLER_17_515
*2486 FILLER_17_522
*2487 FILLER_17_529
*2488 FILLER_17_53
*2489 FILLER_17_536
*2490 FILLER_17_543
*2491 FILLER_17_550
*2492 FILLER_17_557
*2493 FILLER_17_564
*2494 FILLER_17_571
*2495 FILLER_17_578
*2496 FILLER_17_585
*2497 FILLER_17_592
*2498 FILLER_17_599
*2499 FILLER_17_60
*2500 FILLER_17_606
*2501 FILLER_17_613
*2502 FILLER_17_620
*2503 FILLER_17_627
*2504 FILLER_17_634
*2505 FILLER_17_641
*2506 FILLER_17_648
*2507 FILLER_17_655
*2508 FILLER_17_662
*2509 FILLER_17_669
*2510 FILLER_17_67
*2511 FILLER_17_676
*2512 FILLER_17_683
*2513 FILLER_17_690
*2514 FILLER_17_697
*2515 FILLER_17_704
*2516 FILLER_17_711
*2517 FILLER_17_718
*2518 FILLER_17_725
*2519 FILLER_17_732
*2520 FILLER_17_739
*2521 FILLER_17_74
*2522 FILLER_17_746
*2523 FILLER_17_753
*2524 FILLER_17_760
*2525 FILLER_17_767
*2526 FILLER_17_774
*2527 FILLER_17_781
*2528 FILLER_17_788
*2529 FILLER_17_795
*2530 FILLER_17_802
*2531 FILLER_17_809
*2532 FILLER_17_81
*2533 FILLER_17_816
*2534 FILLER_17_823
*2535 FILLER_17_830
*2536 FILLER_17_837
*2537 FILLER_17_844
*2538 FILLER_17_851
*2539 FILLER_17_858
*2540 FILLER_17_865
*2541 FILLER_17_872
*2542 FILLER_17_879
*2543 FILLER_17_88
*2544 FILLER_17_886
*2545 FILLER_17_893
*2546 FILLER_17_900
*2547 FILLER_17_907
*2548 FILLER_17_914
*2549 FILLER_17_921
*2550 FILLER_17_928
*2551 FILLER_17_935
*2552 FILLER_17_942
*2553 FILLER_17_949
*2554 FILLER_17_95
*2555 FILLER_17_956
*2556 FILLER_17_963
*2557 FILLER_17_970
*2558 FILLER_17_977
*2559 FILLER_17_984
*2560 FILLER_17_991
*2561 FILLER_17_998
*2562 FILLER_18_1005
*2563 FILLER_18_1012
*2564 FILLER_18_1019
*2565 FILLER_18_102
*2566 FILLER_18_1026
*2567 FILLER_18_1028
*2568 FILLER_18_109
*2569 FILLER_18_11
*2570 FILLER_18_116
*2571 FILLER_18_123
*2572 FILLER_18_130
*2573 FILLER_18_137
*2574 FILLER_18_144
*2575 FILLER_18_151
*2576 FILLER_18_158
*2577 FILLER_18_165
*2578 FILLER_18_172
*2579 FILLER_18_179
*2580 FILLER_18_18
*2581 FILLER_18_186
*2582 FILLER_18_193
*2583 FILLER_18_200
*2584 FILLER_18_207
*2585 FILLER_18_214
*2586 FILLER_18_221
*2587 FILLER_18_228
*2588 FILLER_18_235
*2589 FILLER_18_242
*2590 FILLER_18_249
*2591 FILLER_18_25
*2592 FILLER_18_256
*2593 FILLER_18_263
*2594 FILLER_18_270
*2595 FILLER_18_277
*2596 FILLER_18_284
*2597 FILLER_18_291
*2598 FILLER_18_298
*2599 FILLER_18_305
*2600 FILLER_18_312
*2601 FILLER_18_319
*2602 FILLER_18_32
*2603 FILLER_18_326
*2604 FILLER_18_333
*2605 FILLER_18_340
*2606 FILLER_18_347
*2607 FILLER_18_354
*2608 FILLER_18_361
*2609 FILLER_18_368
*2610 FILLER_18_375
*2611 FILLER_18_382
*2612 FILLER_18_389
*2613 FILLER_18_39
*2614 FILLER_18_396
*2615 FILLER_18_4
*2616 FILLER_18_403
*2617 FILLER_18_410
*2618 FILLER_18_417
*2619 FILLER_18_424
*2620 FILLER_18_431
*2621 FILLER_18_438
*2622 FILLER_18_445
*2623 FILLER_18_452
*2624 FILLER_18_459
*2625 FILLER_18_46
*2626 FILLER_18_466
*2627 FILLER_18_473
*2628 FILLER_18_480
*2629 FILLER_18_487
*2630 FILLER_18_494
*2631 FILLER_18_501
*2632 FILLER_18_508
*2633 FILLER_18_515
*2634 FILLER_18_522
*2635 FILLER_18_529
*2636 FILLER_18_53
*2637 FILLER_18_536
*2638 FILLER_18_543
*2639 FILLER_18_550
*2640 FILLER_18_557
*2641 FILLER_18_564
*2642 FILLER_18_571
*2643 FILLER_18_578
*2644 FILLER_18_585
*2645 FILLER_18_592
*2646 FILLER_18_599
*2647 FILLER_18_60
*2648 FILLER_18_606
*2649 FILLER_18_613
*2650 FILLER_18_620
*2651 FILLER_18_627
*2652 FILLER_18_634
*2653 FILLER_18_641
*2654 FILLER_18_648
*2655 FILLER_18_655
*2656 FILLER_18_662
*2657 FILLER_18_669
*2658 FILLER_18_67
*2659 FILLER_18_676
*2660 FILLER_18_683
*2661 FILLER_18_690
*2662 FILLER_18_697
*2663 FILLER_18_704
*2664 FILLER_18_711
*2665 FILLER_18_718
*2666 FILLER_18_725
*2667 FILLER_18_732
*2668 FILLER_18_739
*2669 FILLER_18_74
*2670 FILLER_18_746
*2671 FILLER_18_753
*2672 FILLER_18_760
*2673 FILLER_18_767
*2674 FILLER_18_774
*2675 FILLER_18_781
*2676 FILLER_18_788
*2677 FILLER_18_795
*2678 FILLER_18_802
*2679 FILLER_18_809
*2680 FILLER_18_81
*2681 FILLER_18_816
*2682 FILLER_18_823
*2683 FILLER_18_830
*2684 FILLER_18_837
*2685 FILLER_18_844
*2686 FILLER_18_851
*2687 FILLER_18_858
*2688 FILLER_18_865
*2689 FILLER_18_872
*2690 FILLER_18_879
*2691 FILLER_18_88
*2692 FILLER_18_886
*2693 FILLER_18_893
*2694 FILLER_18_900
*2695 FILLER_18_907
*2696 FILLER_18_914
*2697 FILLER_18_921
*2698 FILLER_18_928
*2699 FILLER_18_935
*2700 FILLER_18_942
*2701 FILLER_18_949
*2702 FILLER_18_95
*2703 FILLER_18_956
*2704 FILLER_18_963
*2705 FILLER_18_970
*2706 FILLER_18_977
*2707 FILLER_18_984
*2708 FILLER_18_991
*2709 FILLER_18_998
*2710 FILLER_19_1005
*2711 FILLER_19_1012
*2712 FILLER_19_1019
*2713 FILLER_19_102
*2714 FILLER_19_1026
*2715 FILLER_19_1028
*2716 FILLER_19_109
*2717 FILLER_19_11
*2718 FILLER_19_116
*2719 FILLER_19_123
*2720 FILLER_19_130
*2721 FILLER_19_137
*2722 FILLER_19_144
*2723 FILLER_19_151
*2724 FILLER_19_158
*2725 FILLER_19_165
*2726 FILLER_19_172
*2727 FILLER_19_179
*2728 FILLER_19_18
*2729 FILLER_19_186
*2730 FILLER_19_193
*2731 FILLER_19_200
*2732 FILLER_19_207
*2733 FILLER_19_214
*2734 FILLER_19_221
*2735 FILLER_19_228
*2736 FILLER_19_235
*2737 FILLER_19_242
*2738 FILLER_19_249
*2739 FILLER_19_25
*2740 FILLER_19_256
*2741 FILLER_19_263
*2742 FILLER_19_270
*2743 FILLER_19_277
*2744 FILLER_19_284
*2745 FILLER_19_291
*2746 FILLER_19_298
*2747 FILLER_19_305
*2748 FILLER_19_312
*2749 FILLER_19_319
*2750 FILLER_19_32
*2751 FILLER_19_326
*2752 FILLER_19_333
*2753 FILLER_19_340
*2754 FILLER_19_347
*2755 FILLER_19_354
*2756 FILLER_19_361
*2757 FILLER_19_368
*2758 FILLER_19_375
*2759 FILLER_19_382
*2760 FILLER_19_389
*2761 FILLER_19_39
*2762 FILLER_19_396
*2763 FILLER_19_4
*2764 FILLER_19_403
*2765 FILLER_19_410
*2766 FILLER_19_417
*2767 FILLER_19_424
*2768 FILLER_19_431
*2769 FILLER_19_438
*2770 FILLER_19_445
*2771 FILLER_19_452
*2772 FILLER_19_459
*2773 FILLER_19_46
*2774 FILLER_19_466
*2775 FILLER_19_473
*2776 FILLER_19_480
*2777 FILLER_19_487
*2778 FILLER_19_494
*2779 FILLER_19_501
*2780 FILLER_19_508
*2781 FILLER_19_515
*2782 FILLER_19_522
*2783 FILLER_19_529
*2784 FILLER_19_53
*2785 FILLER_19_536
*2786 FILLER_19_543
*2787 FILLER_19_550
*2788 FILLER_19_557
*2789 FILLER_19_564
*2790 FILLER_19_571
*2791 FILLER_19_578
*2792 FILLER_19_585
*2793 FILLER_19_592
*2794 FILLER_19_599
*2795 FILLER_19_60
*2796 FILLER_19_606
*2797 FILLER_19_613
*2798 FILLER_19_620
*2799 FILLER_19_627
*2800 FILLER_19_634
*2801 FILLER_19_641
*2802 FILLER_19_648
*2803 FILLER_19_655
*2804 FILLER_19_662
*2805 FILLER_19_669
*2806 FILLER_19_67
*2807 FILLER_19_676
*2808 FILLER_19_683
*2809 FILLER_19_690
*2810 FILLER_19_697
*2811 FILLER_19_704
*2812 FILLER_19_711
*2813 FILLER_19_718
*2814 FILLER_19_725
*2815 FILLER_19_732
*2816 FILLER_19_739
*2817 FILLER_19_74
*2818 FILLER_19_746
*2819 FILLER_19_753
*2820 FILLER_19_760
*2821 FILLER_19_767
*2822 FILLER_19_774
*2823 FILLER_19_781
*2824 FILLER_19_788
*2825 FILLER_19_795
*2826 FILLER_19_802
*2827 FILLER_19_809
*2828 FILLER_19_81
*2829 FILLER_19_816
*2830 FILLER_19_823
*2831 FILLER_19_830
*2832 FILLER_19_837
*2833 FILLER_19_844
*2834 FILLER_19_851
*2835 FILLER_19_858
*2836 FILLER_19_865
*2837 FILLER_19_872
*2838 FILLER_19_879
*2839 FILLER_19_88
*2840 FILLER_19_886
*2841 FILLER_19_893
*2842 FILLER_19_900
*2843 FILLER_19_907
*2844 FILLER_19_914
*2845 FILLER_19_921
*2846 FILLER_19_928
*2847 FILLER_19_935
*2848 FILLER_19_942
*2849 FILLER_19_949
*2850 FILLER_19_95
*2851 FILLER_19_956
*2852 FILLER_19_963
*2853 FILLER_19_970
*2854 FILLER_19_977
*2855 FILLER_19_984
*2856 FILLER_19_991
*2857 FILLER_19_998
*2858 FILLER_1_0
*2859 FILLER_1_1001
*2860 FILLER_1_1008
*2861 FILLER_1_1015
*2862 FILLER_1_1022
*2863 FILLER_1_105
*2864 FILLER_1_112
*2865 FILLER_1_119
*2866 FILLER_1_126
*2867 FILLER_1_133
*2868 FILLER_1_14
*2869 FILLER_1_140
*2870 FILLER_1_147
*2871 FILLER_1_154
*2872 FILLER_1_161
*2873 FILLER_1_168
*2874 FILLER_1_175
*2875 FILLER_1_182
*2876 FILLER_1_189
*2877 FILLER_1_196
*2878 FILLER_1_203
*2879 FILLER_1_21
*2880 FILLER_1_210
*2881 FILLER_1_217
*2882 FILLER_1_224
*2883 FILLER_1_231
*2884 FILLER_1_238
*2885 FILLER_1_245
*2886 FILLER_1_252
*2887 FILLER_1_259
*2888 FILLER_1_266
*2889 FILLER_1_273
*2890 FILLER_1_28
*2891 FILLER_1_280
*2892 FILLER_1_287
*2893 FILLER_1_294
*2894 FILLER_1_301
*2895 FILLER_1_308
*2896 FILLER_1_315
*2897 FILLER_1_322
*2898 FILLER_1_329
*2899 FILLER_1_336
*2900 FILLER_1_343
*2901 FILLER_1_35
*2902 FILLER_1_350
*2903 FILLER_1_357
*2904 FILLER_1_364
*2905 FILLER_1_371
*2906 FILLER_1_378
*2907 FILLER_1_385
*2908 FILLER_1_392
*2909 FILLER_1_399
*2910 FILLER_1_406
*2911 FILLER_1_413
*2912 FILLER_1_42
*2913 FILLER_1_420
*2914 FILLER_1_427
*2915 FILLER_1_434
*2916 FILLER_1_441
*2917 FILLER_1_448
*2918 FILLER_1_455
*2919 FILLER_1_462
*2920 FILLER_1_469
*2921 FILLER_1_476
*2922 FILLER_1_483
*2923 FILLER_1_49
*2924 FILLER_1_490
*2925 FILLER_1_497
*2926 FILLER_1_504
*2927 FILLER_1_511
*2928 FILLER_1_518
*2929 FILLER_1_525
*2930 FILLER_1_532
*2931 FILLER_1_539
*2932 FILLER_1_546
*2933 FILLER_1_553
*2934 FILLER_1_56
*2935 FILLER_1_560
*2936 FILLER_1_567
*2937 FILLER_1_574
*2938 FILLER_1_581
*2939 FILLER_1_588
*2940 FILLER_1_595
*2941 FILLER_1_602
*2942 FILLER_1_609
*2943 FILLER_1_616
*2944 FILLER_1_623
*2945 FILLER_1_63
*2946 FILLER_1_630
*2947 FILLER_1_637
*2948 FILLER_1_644
*2949 FILLER_1_651
*2950 FILLER_1_658
*2951 FILLER_1_665
*2952 FILLER_1_672
*2953 FILLER_1_679
*2954 FILLER_1_686
*2955 FILLER_1_693
*2956 FILLER_1_7
*2957 FILLER_1_70
*2958 FILLER_1_700
*2959 FILLER_1_707
*2960 FILLER_1_714
*2961 FILLER_1_721
*2962 FILLER_1_728
*2963 FILLER_1_735
*2964 FILLER_1_742
*2965 FILLER_1_749
*2966 FILLER_1_756
*2967 FILLER_1_763
*2968 FILLER_1_77
*2969 FILLER_1_770
*2970 FILLER_1_777
*2971 FILLER_1_784
*2972 FILLER_1_791
*2973 FILLER_1_798
*2974 FILLER_1_805
*2975 FILLER_1_812
*2976 FILLER_1_819
*2977 FILLER_1_826
*2978 FILLER_1_833
*2979 FILLER_1_84
*2980 FILLER_1_840
*2981 FILLER_1_847
*2982 FILLER_1_854
*2983 FILLER_1_861
*2984 FILLER_1_868
*2985 FILLER_1_875
*2986 FILLER_1_882
*2987 FILLER_1_889
*2988 FILLER_1_896
*2989 FILLER_1_903
*2990 FILLER_1_91
*2991 FILLER_1_910
*2992 FILLER_1_917
*2993 FILLER_1_924
*2994 FILLER_1_931
*2995 FILLER_1_938
*2996 FILLER_1_945
*2997 FILLER_1_952
*2998 FILLER_1_959
*2999 FILLER_1_966
*3000 FILLER_1_973
*3001 FILLER_1_98
*3002 FILLER_1_980
*3003 FILLER_1_987
*3004 FILLER_1_994
*3005 FILLER_20_1005
*3006 FILLER_20_1012
*3007 FILLER_20_1019
*3008 FILLER_20_102
*3009 FILLER_20_1026
*3010 FILLER_20_1028
*3011 FILLER_20_109
*3012 FILLER_20_11
*3013 FILLER_20_116
*3014 FILLER_20_123
*3015 FILLER_20_130
*3016 FILLER_20_137
*3017 FILLER_20_144
*3018 FILLER_20_151
*3019 FILLER_20_158
*3020 FILLER_20_165
*3021 FILLER_20_172
*3022 FILLER_20_179
*3023 FILLER_20_18
*3024 FILLER_20_186
*3025 FILLER_20_193
*3026 FILLER_20_200
*3027 FILLER_20_207
*3028 FILLER_20_214
*3029 FILLER_20_221
*3030 FILLER_20_228
*3031 FILLER_20_235
*3032 FILLER_20_242
*3033 FILLER_20_249
*3034 FILLER_20_25
*3035 FILLER_20_256
*3036 FILLER_20_263
*3037 FILLER_20_270
*3038 FILLER_20_277
*3039 FILLER_20_284
*3040 FILLER_20_291
*3041 FILLER_20_298
*3042 FILLER_20_305
*3043 FILLER_20_312
*3044 FILLER_20_319
*3045 FILLER_20_32
*3046 FILLER_20_326
*3047 FILLER_20_333
*3048 FILLER_20_340
*3049 FILLER_20_347
*3050 FILLER_20_354
*3051 FILLER_20_361
*3052 FILLER_20_368
*3053 FILLER_20_375
*3054 FILLER_20_382
*3055 FILLER_20_389
*3056 FILLER_20_39
*3057 FILLER_20_396
*3058 FILLER_20_4
*3059 FILLER_20_403
*3060 FILLER_20_410
*3061 FILLER_20_417
*3062 FILLER_20_424
*3063 FILLER_20_431
*3064 FILLER_20_438
*3065 FILLER_20_445
*3066 FILLER_20_452
*3067 FILLER_20_459
*3068 FILLER_20_46
*3069 FILLER_20_466
*3070 FILLER_20_473
*3071 FILLER_20_480
*3072 FILLER_20_487
*3073 FILLER_20_494
*3074 FILLER_20_501
*3075 FILLER_20_508
*3076 FILLER_20_515
*3077 FILLER_20_522
*3078 FILLER_20_529
*3079 FILLER_20_53
*3080 FILLER_20_536
*3081 FILLER_20_543
*3082 FILLER_20_550
*3083 FILLER_20_557
*3084 FILLER_20_564
*3085 FILLER_20_571
*3086 FILLER_20_578
*3087 FILLER_20_585
*3088 FILLER_20_592
*3089 FILLER_20_599
*3090 FILLER_20_60
*3091 FILLER_20_606
*3092 FILLER_20_613
*3093 FILLER_20_620
*3094 FILLER_20_627
*3095 FILLER_20_634
*3096 FILLER_20_641
*3097 FILLER_20_648
*3098 FILLER_20_655
*3099 FILLER_20_662
*3100 FILLER_20_669
*3101 FILLER_20_67
*3102 FILLER_20_676
*3103 FILLER_20_683
*3104 FILLER_20_690
*3105 FILLER_20_697
*3106 FILLER_20_704
*3107 FILLER_20_711
*3108 FILLER_20_718
*3109 FILLER_20_725
*3110 FILLER_20_732
*3111 FILLER_20_739
*3112 FILLER_20_74
*3113 FILLER_20_746
*3114 FILLER_20_753
*3115 FILLER_20_760
*3116 FILLER_20_767
*3117 FILLER_20_774
*3118 FILLER_20_781
*3119 FILLER_20_788
*3120 FILLER_20_795
*3121 FILLER_20_802
*3122 FILLER_20_809
*3123 FILLER_20_81
*3124 FILLER_20_816
*3125 FILLER_20_823
*3126 FILLER_20_830
*3127 FILLER_20_837
*3128 FILLER_20_844
*3129 FILLER_20_851
*3130 FILLER_20_858
*3131 FILLER_20_865
*3132 FILLER_20_872
*3133 FILLER_20_879
*3134 FILLER_20_88
*3135 FILLER_20_886
*3136 FILLER_20_893
*3137 FILLER_20_900
*3138 FILLER_20_907
*3139 FILLER_20_914
*3140 FILLER_20_921
*3141 FILLER_20_928
*3142 FILLER_20_935
*3143 FILLER_20_942
*3144 FILLER_20_949
*3145 FILLER_20_95
*3146 FILLER_20_956
*3147 FILLER_20_963
*3148 FILLER_20_970
*3149 FILLER_20_977
*3150 FILLER_20_984
*3151 FILLER_20_991
*3152 FILLER_20_998
*3153 FILLER_21_0
*3154 FILLER_21_1001
*3155 FILLER_21_1008
*3156 FILLER_21_1015
*3157 FILLER_21_1022
*3158 FILLER_21_105
*3159 FILLER_21_112
*3160 FILLER_21_119
*3161 FILLER_21_126
*3162 FILLER_21_133
*3163 FILLER_21_14
*3164 FILLER_21_140
*3165 FILLER_21_147
*3166 FILLER_21_154
*3167 FILLER_21_161
*3168 FILLER_21_168
*3169 FILLER_21_175
*3170 FILLER_21_182
*3171 FILLER_21_189
*3172 FILLER_21_196
*3173 FILLER_21_203
*3174 FILLER_21_21
*3175 FILLER_21_210
*3176 FILLER_21_217
*3177 FILLER_21_224
*3178 FILLER_21_231
*3179 FILLER_21_238
*3180 FILLER_21_245
*3181 FILLER_21_252
*3182 FILLER_21_259
*3183 FILLER_21_266
*3184 FILLER_21_273
*3185 FILLER_21_28
*3186 FILLER_21_280
*3187 FILLER_21_287
*3188 FILLER_21_294
*3189 FILLER_21_301
*3190 FILLER_21_308
*3191 FILLER_21_315
*3192 FILLER_21_322
*3193 FILLER_21_329
*3194 FILLER_21_336
*3195 FILLER_21_343
*3196 FILLER_21_35
*3197 FILLER_21_350
*3198 FILLER_21_357
*3199 FILLER_21_364
*3200 FILLER_21_371
*3201 FILLER_21_378
*3202 FILLER_21_385
*3203 FILLER_21_392
*3204 FILLER_21_399
*3205 FILLER_21_406
*3206 FILLER_21_413
*3207 FILLER_21_42
*3208 FILLER_21_420
*3209 FILLER_21_427
*3210 FILLER_21_434
*3211 FILLER_21_441
*3212 FILLER_21_448
*3213 FILLER_21_455
*3214 FILLER_21_462
*3215 FILLER_21_469
*3216 FILLER_21_476
*3217 FILLER_21_483
*3218 FILLER_21_49
*3219 FILLER_21_490
*3220 FILLER_21_497
*3221 FILLER_21_504
*3222 FILLER_21_511
*3223 FILLER_21_518
*3224 FILLER_21_525
*3225 FILLER_21_532
*3226 FILLER_21_539
*3227 FILLER_21_546
*3228 FILLER_21_553
*3229 FILLER_21_56
*3230 FILLER_21_560
*3231 FILLER_21_567
*3232 FILLER_21_574
*3233 FILLER_21_581
*3234 FILLER_21_588
*3235 FILLER_21_595
*3236 FILLER_21_602
*3237 FILLER_21_609
*3238 FILLER_21_616
*3239 FILLER_21_623
*3240 FILLER_21_63
*3241 FILLER_21_630
*3242 FILLER_21_637
*3243 FILLER_21_644
*3244 FILLER_21_651
*3245 FILLER_21_658
*3246 FILLER_21_665
*3247 FILLER_21_672
*3248 FILLER_21_679
*3249 FILLER_21_686
*3250 FILLER_21_693
*3251 FILLER_21_7
*3252 FILLER_21_70
*3253 FILLER_21_700
*3254 FILLER_21_707
*3255 FILLER_21_714
*3256 FILLER_21_721
*3257 FILLER_21_728
*3258 FILLER_21_735
*3259 FILLER_21_742
*3260 FILLER_21_749
*3261 FILLER_21_756
*3262 FILLER_21_763
*3263 FILLER_21_77
*3264 FILLER_21_770
*3265 FILLER_21_777
*3266 FILLER_21_784
*3267 FILLER_21_791
*3268 FILLER_21_798
*3269 FILLER_21_805
*3270 FILLER_21_812
*3271 FILLER_21_819
*3272 FILLER_21_826
*3273 FILLER_21_833
*3274 FILLER_21_84
*3275 FILLER_21_840
*3276 FILLER_21_847
*3277 FILLER_21_854
*3278 FILLER_21_861
*3279 FILLER_21_868
*3280 FILLER_21_875
*3281 FILLER_21_882
*3282 FILLER_21_889
*3283 FILLER_21_896
*3284 FILLER_21_903
*3285 FILLER_21_91
*3286 FILLER_21_910
*3287 FILLER_21_917
*3288 FILLER_21_924
*3289 FILLER_21_931
*3290 FILLER_21_938
*3291 FILLER_21_945
*3292 FILLER_21_952
*3293 FILLER_21_959
*3294 FILLER_21_966
*3295 FILLER_21_973
*3296 FILLER_21_98
*3297 FILLER_21_980
*3298 FILLER_21_987
*3299 FILLER_21_994
*3300 FILLER_22_1005
*3301 FILLER_22_1012
*3302 FILLER_22_1019
*3303 FILLER_22_102
*3304 FILLER_22_1026
*3305 FILLER_22_1028
*3306 FILLER_22_109
*3307 FILLER_22_11
*3308 FILLER_22_116
*3309 FILLER_22_123
*3310 FILLER_22_130
*3311 FILLER_22_137
*3312 FILLER_22_144
*3313 FILLER_22_151
*3314 FILLER_22_158
*3315 FILLER_22_165
*3316 FILLER_22_172
*3317 FILLER_22_179
*3318 FILLER_22_18
*3319 FILLER_22_186
*3320 FILLER_22_193
*3321 FILLER_22_200
*3322 FILLER_22_207
*3323 FILLER_22_214
*3324 FILLER_22_221
*3325 FILLER_22_228
*3326 FILLER_22_235
*3327 FILLER_22_242
*3328 FILLER_22_249
*3329 FILLER_22_25
*3330 FILLER_22_256
*3331 FILLER_22_263
*3332 FILLER_22_270
*3333 FILLER_22_277
*3334 FILLER_22_284
*3335 FILLER_22_291
*3336 FILLER_22_298
*3337 FILLER_22_305
*3338 FILLER_22_312
*3339 FILLER_22_319
*3340 FILLER_22_32
*3341 FILLER_22_326
*3342 FILLER_22_333
*3343 FILLER_22_340
*3344 FILLER_22_347
*3345 FILLER_22_354
*3346 FILLER_22_361
*3347 FILLER_22_368
*3348 FILLER_22_375
*3349 FILLER_22_382
*3350 FILLER_22_389
*3351 FILLER_22_39
*3352 FILLER_22_396
*3353 FILLER_22_4
*3354 FILLER_22_403
*3355 FILLER_22_410
*3356 FILLER_22_417
*3357 FILLER_22_424
*3358 FILLER_22_431
*3359 FILLER_22_438
*3360 FILLER_22_445
*3361 FILLER_22_452
*3362 FILLER_22_459
*3363 FILLER_22_46
*3364 FILLER_22_466
*3365 FILLER_22_473
*3366 FILLER_22_480
*3367 FILLER_22_487
*3368 FILLER_22_494
*3369 FILLER_22_501
*3370 FILLER_22_508
*3371 FILLER_22_515
*3372 FILLER_22_522
*3373 FILLER_22_529
*3374 FILLER_22_53
*3375 FILLER_22_536
*3376 FILLER_22_543
*3377 FILLER_22_550
*3378 FILLER_22_557
*3379 FILLER_22_564
*3380 FILLER_22_571
*3381 FILLER_22_578
*3382 FILLER_22_585
*3383 FILLER_22_592
*3384 FILLER_22_599
*3385 FILLER_22_60
*3386 FILLER_22_606
*3387 FILLER_22_613
*3388 FILLER_22_620
*3389 FILLER_22_627
*3390 FILLER_22_634
*3391 FILLER_22_641
*3392 FILLER_22_648
*3393 FILLER_22_655
*3394 FILLER_22_662
*3395 FILLER_22_669
*3396 FILLER_22_67
*3397 FILLER_22_676
*3398 FILLER_22_683
*3399 FILLER_22_690
*3400 FILLER_22_697
*3401 FILLER_22_704
*3402 FILLER_22_711
*3403 FILLER_22_718
*3404 FILLER_22_725
*3405 FILLER_22_732
*3406 FILLER_22_739
*3407 FILLER_22_74
*3408 FILLER_22_746
*3409 FILLER_22_753
*3410 FILLER_22_760
*3411 FILLER_22_767
*3412 FILLER_22_774
*3413 FILLER_22_781
*3414 FILLER_22_788
*3415 FILLER_22_795
*3416 FILLER_22_802
*3417 FILLER_22_809
*3418 FILLER_22_81
*3419 FILLER_22_816
*3420 FILLER_22_823
*3421 FILLER_22_830
*3422 FILLER_22_837
*3423 FILLER_22_844
*3424 FILLER_22_851
*3425 FILLER_22_858
*3426 FILLER_22_865
*3427 FILLER_22_872
*3428 FILLER_22_879
*3429 FILLER_22_88
*3430 FILLER_22_886
*3431 FILLER_22_893
*3432 FILLER_22_900
*3433 FILLER_22_907
*3434 FILLER_22_914
*3435 FILLER_22_921
*3436 FILLER_22_928
*3437 FILLER_22_935
*3438 FILLER_22_942
*3439 FILLER_22_949
*3440 FILLER_22_95
*3441 FILLER_22_956
*3442 FILLER_22_963
*3443 FILLER_22_970
*3444 FILLER_22_977
*3445 FILLER_22_984
*3446 FILLER_22_991
*3447 FILLER_22_998
*3448 FILLER_23_1005
*3449 FILLER_23_1012
*3450 FILLER_23_1019
*3451 FILLER_23_102
*3452 FILLER_23_1026
*3453 FILLER_23_1028
*3454 FILLER_23_109
*3455 FILLER_23_11
*3456 FILLER_23_116
*3457 FILLER_23_123
*3458 FILLER_23_130
*3459 FILLER_23_137
*3460 FILLER_23_144
*3461 FILLER_23_151
*3462 FILLER_23_158
*3463 FILLER_23_165
*3464 FILLER_23_172
*3465 FILLER_23_179
*3466 FILLER_23_18
*3467 FILLER_23_186
*3468 FILLER_23_193
*3469 FILLER_23_200
*3470 FILLER_23_207
*3471 FILLER_23_214
*3472 FILLER_23_221
*3473 FILLER_23_228
*3474 FILLER_23_235
*3475 FILLER_23_242
*3476 FILLER_23_249
*3477 FILLER_23_25
*3478 FILLER_23_256
*3479 FILLER_23_263
*3480 FILLER_23_270
*3481 FILLER_23_277
*3482 FILLER_23_284
*3483 FILLER_23_291
*3484 FILLER_23_298
*3485 FILLER_23_305
*3486 FILLER_23_312
*3487 FILLER_23_319
*3488 FILLER_23_32
*3489 FILLER_23_326
*3490 FILLER_23_333
*3491 FILLER_23_340
*3492 FILLER_23_347
*3493 FILLER_23_354
*3494 FILLER_23_361
*3495 FILLER_23_368
*3496 FILLER_23_375
*3497 FILLER_23_382
*3498 FILLER_23_389
*3499 FILLER_23_39
*3500 FILLER_23_396
*3501 FILLER_23_4
*3502 FILLER_23_403
*3503 FILLER_23_410
*3504 FILLER_23_417
*3505 FILLER_23_424
*3506 FILLER_23_431
*3507 FILLER_23_438
*3508 FILLER_23_445
*3509 FILLER_23_452
*3510 FILLER_23_459
*3511 FILLER_23_46
*3512 FILLER_23_466
*3513 FILLER_23_473
*3514 FILLER_23_480
*3515 FILLER_23_487
*3516 FILLER_23_494
*3517 FILLER_23_501
*3518 FILLER_23_508
*3519 FILLER_23_515
*3520 FILLER_23_522
*3521 FILLER_23_529
*3522 FILLER_23_53
*3523 FILLER_23_536
*3524 FILLER_23_543
*3525 FILLER_23_550
*3526 FILLER_23_557
*3527 FILLER_23_564
*3528 FILLER_23_571
*3529 FILLER_23_578
*3530 FILLER_23_585
*3531 FILLER_23_592
*3532 FILLER_23_599
*3533 FILLER_23_60
*3534 FILLER_23_606
*3535 FILLER_23_613
*3536 FILLER_23_620
*3537 FILLER_23_627
*3538 FILLER_23_634
*3539 FILLER_23_641
*3540 FILLER_23_648
*3541 FILLER_23_655
*3542 FILLER_23_662
*3543 FILLER_23_669
*3544 FILLER_23_67
*3545 FILLER_23_676
*3546 FILLER_23_683
*3547 FILLER_23_690
*3548 FILLER_23_697
*3549 FILLER_23_704
*3550 FILLER_23_711
*3551 FILLER_23_718
*3552 FILLER_23_725
*3553 FILLER_23_732
*3554 FILLER_23_739
*3555 FILLER_23_74
*3556 FILLER_23_746
*3557 FILLER_23_753
*3558 FILLER_23_760
*3559 FILLER_23_767
*3560 FILLER_23_774
*3561 FILLER_23_781
*3562 FILLER_23_788
*3563 FILLER_23_795
*3564 FILLER_23_802
*3565 FILLER_23_809
*3566 FILLER_23_81
*3567 FILLER_23_816
*3568 FILLER_23_823
*3569 FILLER_23_830
*3570 FILLER_23_837
*3571 FILLER_23_844
*3572 FILLER_23_851
*3573 FILLER_23_858
*3574 FILLER_23_865
*3575 FILLER_23_872
*3576 FILLER_23_879
*3577 FILLER_23_88
*3578 FILLER_23_886
*3579 FILLER_23_893
*3580 FILLER_23_900
*3581 FILLER_23_907
*3582 FILLER_23_914
*3583 FILLER_23_921
*3584 FILLER_23_928
*3585 FILLER_23_935
*3586 FILLER_23_942
*3587 FILLER_23_949
*3588 FILLER_23_95
*3589 FILLER_23_956
*3590 FILLER_23_963
*3591 FILLER_23_970
*3592 FILLER_23_977
*3593 FILLER_23_984
*3594 FILLER_23_991
*3595 FILLER_23_998
*3596 FILLER_24_1005
*3597 FILLER_24_1012
*3598 FILLER_24_1019
*3599 FILLER_24_102
*3600 FILLER_24_1026
*3601 FILLER_24_1028
*3602 FILLER_24_109
*3603 FILLER_24_11
*3604 FILLER_24_116
*3605 FILLER_24_123
*3606 FILLER_24_130
*3607 FILLER_24_137
*3608 FILLER_24_144
*3609 FILLER_24_151
*3610 FILLER_24_158
*3611 FILLER_24_165
*3612 FILLER_24_172
*3613 FILLER_24_179
*3614 FILLER_24_18
*3615 FILLER_24_186
*3616 FILLER_24_193
*3617 FILLER_24_200
*3618 FILLER_24_207
*3619 FILLER_24_214
*3620 FILLER_24_221
*3621 FILLER_24_228
*3622 FILLER_24_235
*3623 FILLER_24_242
*3624 FILLER_24_249
*3625 FILLER_24_25
*3626 FILLER_24_256
*3627 FILLER_24_263
*3628 FILLER_24_270
*3629 FILLER_24_277
*3630 FILLER_24_284
*3631 FILLER_24_291
*3632 FILLER_24_298
*3633 FILLER_24_305
*3634 FILLER_24_312
*3635 FILLER_24_319
*3636 FILLER_24_32
*3637 FILLER_24_326
*3638 FILLER_24_333
*3639 FILLER_24_340
*3640 FILLER_24_347
*3641 FILLER_24_354
*3642 FILLER_24_361
*3643 FILLER_24_368
*3644 FILLER_24_375
*3645 FILLER_24_382
*3646 FILLER_24_389
*3647 FILLER_24_39
*3648 FILLER_24_396
*3649 FILLER_24_4
*3650 FILLER_24_403
*3651 FILLER_24_410
*3652 FILLER_24_417
*3653 FILLER_24_424
*3654 FILLER_24_431
*3655 FILLER_24_438
*3656 FILLER_24_445
*3657 FILLER_24_452
*3658 FILLER_24_459
*3659 FILLER_24_46
*3660 FILLER_24_466
*3661 FILLER_24_473
*3662 FILLER_24_480
*3663 FILLER_24_487
*3664 FILLER_24_494
*3665 FILLER_24_501
*3666 FILLER_24_508
*3667 FILLER_24_515
*3668 FILLER_24_522
*3669 FILLER_24_529
*3670 FILLER_24_53
*3671 FILLER_24_536
*3672 FILLER_24_543
*3673 FILLER_24_550
*3674 FILLER_24_557
*3675 FILLER_24_564
*3676 FILLER_24_571
*3677 FILLER_24_578
*3678 FILLER_24_585
*3679 FILLER_24_592
*3680 FILLER_24_599
*3681 FILLER_24_60
*3682 FILLER_24_606
*3683 FILLER_24_613
*3684 FILLER_24_620
*3685 FILLER_24_627
*3686 FILLER_24_634
*3687 FILLER_24_641
*3688 FILLER_24_648
*3689 FILLER_24_655
*3690 FILLER_24_662
*3691 FILLER_24_669
*3692 FILLER_24_67
*3693 FILLER_24_676
*3694 FILLER_24_683
*3695 FILLER_24_690
*3696 FILLER_24_697
*3697 FILLER_24_704
*3698 FILLER_24_711
*3699 FILLER_24_718
*3700 FILLER_24_725
*3701 FILLER_24_732
*3702 FILLER_24_739
*3703 FILLER_24_74
*3704 FILLER_24_746
*3705 FILLER_24_753
*3706 FILLER_24_760
*3707 FILLER_24_767
*3708 FILLER_24_774
*3709 FILLER_24_781
*3710 FILLER_24_788
*3711 FILLER_24_795
*3712 FILLER_24_802
*3713 FILLER_24_809
*3714 FILLER_24_81
*3715 FILLER_24_816
*3716 FILLER_24_823
*3717 FILLER_24_830
*3718 FILLER_24_837
*3719 FILLER_24_844
*3720 FILLER_24_851
*3721 FILLER_24_858
*3722 FILLER_24_865
*3723 FILLER_24_872
*3724 FILLER_24_879
*3725 FILLER_24_88
*3726 FILLER_24_886
*3727 FILLER_24_893
*3728 FILLER_24_900
*3729 FILLER_24_907
*3730 FILLER_24_914
*3731 FILLER_24_921
*3732 FILLER_24_928
*3733 FILLER_24_935
*3734 FILLER_24_942
*3735 FILLER_24_949
*3736 FILLER_24_95
*3737 FILLER_24_956
*3738 FILLER_24_963
*3739 FILLER_24_970
*3740 FILLER_24_977
*3741 FILLER_24_984
*3742 FILLER_24_991
*3743 FILLER_24_998
*3744 FILLER_25_1005
*3745 FILLER_25_1012
*3746 FILLER_25_1019
*3747 FILLER_25_102
*3748 FILLER_25_1026
*3749 FILLER_25_1028
*3750 FILLER_25_109
*3751 FILLER_25_11
*3752 FILLER_25_116
*3753 FILLER_25_123
*3754 FILLER_25_130
*3755 FILLER_25_137
*3756 FILLER_25_144
*3757 FILLER_25_151
*3758 FILLER_25_158
*3759 FILLER_25_165
*3760 FILLER_25_172
*3761 FILLER_25_179
*3762 FILLER_25_18
*3763 FILLER_25_186
*3764 FILLER_25_193
*3765 FILLER_25_200
*3766 FILLER_25_207
*3767 FILLER_25_214
*3768 FILLER_25_221
*3769 FILLER_25_228
*3770 FILLER_25_235
*3771 FILLER_25_242
*3772 FILLER_25_249
*3773 FILLER_25_25
*3774 FILLER_25_256
*3775 FILLER_25_263
*3776 FILLER_25_270
*3777 FILLER_25_277
*3778 FILLER_25_284
*3779 FILLER_25_291
*3780 FILLER_25_298
*3781 FILLER_25_305
*3782 FILLER_25_312
*3783 FILLER_25_319
*3784 FILLER_25_32
*3785 FILLER_25_326
*3786 FILLER_25_333
*3787 FILLER_25_340
*3788 FILLER_25_347
*3789 FILLER_25_354
*3790 FILLER_25_361
*3791 FILLER_25_368
*3792 FILLER_25_375
*3793 FILLER_25_382
*3794 FILLER_25_389
*3795 FILLER_25_39
*3796 FILLER_25_396
*3797 FILLER_25_4
*3798 FILLER_25_403
*3799 FILLER_25_410
*3800 FILLER_25_417
*3801 FILLER_25_424
*3802 FILLER_25_431
*3803 FILLER_25_438
*3804 FILLER_25_445
*3805 FILLER_25_452
*3806 FILLER_25_459
*3807 FILLER_25_46
*3808 FILLER_25_466
*3809 FILLER_25_473
*3810 FILLER_25_480
*3811 FILLER_25_487
*3812 FILLER_25_494
*3813 FILLER_25_501
*3814 FILLER_25_508
*3815 FILLER_25_515
*3816 FILLER_25_522
*3817 FILLER_25_529
*3818 FILLER_25_53
*3819 FILLER_25_536
*3820 FILLER_25_543
*3821 FILLER_25_550
*3822 FILLER_25_557
*3823 FILLER_25_564
*3824 FILLER_25_571
*3825 FILLER_25_578
*3826 FILLER_25_585
*3827 FILLER_25_592
*3828 FILLER_25_599
*3829 FILLER_25_60
*3830 FILLER_25_606
*3831 FILLER_25_613
*3832 FILLER_25_620
*3833 FILLER_25_627
*3834 FILLER_25_634
*3835 FILLER_25_641
*3836 FILLER_25_648
*3837 FILLER_25_655
*3838 FILLER_25_662
*3839 FILLER_25_669
*3840 FILLER_25_67
*3841 FILLER_25_676
*3842 FILLER_25_683
*3843 FILLER_25_690
*3844 FILLER_25_697
*3845 FILLER_25_704
*3846 FILLER_25_711
*3847 FILLER_25_718
*3848 FILLER_25_725
*3849 FILLER_25_732
*3850 FILLER_25_739
*3851 FILLER_25_74
*3852 FILLER_25_746
*3853 FILLER_25_753
*3854 FILLER_25_760
*3855 FILLER_25_767
*3856 FILLER_25_774
*3857 FILLER_25_781
*3858 FILLER_25_788
*3859 FILLER_25_795
*3860 FILLER_25_802
*3861 FILLER_25_809
*3862 FILLER_25_81
*3863 FILLER_25_816
*3864 FILLER_25_823
*3865 FILLER_25_830
*3866 FILLER_25_837
*3867 FILLER_25_844
*3868 FILLER_25_851
*3869 FILLER_25_858
*3870 FILLER_25_865
*3871 FILLER_25_872
*3872 FILLER_25_879
*3873 FILLER_25_88
*3874 FILLER_25_886
*3875 FILLER_25_893
*3876 FILLER_25_900
*3877 FILLER_25_907
*3878 FILLER_25_914
*3879 FILLER_25_921
*3880 FILLER_25_928
*3881 FILLER_25_935
*3882 FILLER_25_942
*3883 FILLER_25_949
*3884 FILLER_25_95
*3885 FILLER_25_956
*3886 FILLER_25_963
*3887 FILLER_25_970
*3888 FILLER_25_977
*3889 FILLER_25_984
*3890 FILLER_25_991
*3891 FILLER_25_998
*3892 FILLER_26_1005
*3893 FILLER_26_1012
*3894 FILLER_26_1019
*3895 FILLER_26_102
*3896 FILLER_26_1026
*3897 FILLER_26_1028
*3898 FILLER_26_109
*3899 FILLER_26_11
*3900 FILLER_26_116
*3901 FILLER_26_123
*3902 FILLER_26_130
*3903 FILLER_26_137
*3904 FILLER_26_144
*3905 FILLER_26_151
*3906 FILLER_26_158
*3907 FILLER_26_165
*3908 FILLER_26_172
*3909 FILLER_26_179
*3910 FILLER_26_18
*3911 FILLER_26_186
*3912 FILLER_26_193
*3913 FILLER_26_200
*3914 FILLER_26_207
*3915 FILLER_26_214
*3916 FILLER_26_221
*3917 FILLER_26_228
*3918 FILLER_26_235
*3919 FILLER_26_242
*3920 FILLER_26_249
*3921 FILLER_26_25
*3922 FILLER_26_256
*3923 FILLER_26_263
*3924 FILLER_26_270
*3925 FILLER_26_277
*3926 FILLER_26_284
*3927 FILLER_26_291
*3928 FILLER_26_298
*3929 FILLER_26_305
*3930 FILLER_26_312
*3931 FILLER_26_319
*3932 FILLER_26_32
*3933 FILLER_26_326
*3934 FILLER_26_333
*3935 FILLER_26_340
*3936 FILLER_26_347
*3937 FILLER_26_354
*3938 FILLER_26_361
*3939 FILLER_26_368
*3940 FILLER_26_375
*3941 FILLER_26_382
*3942 FILLER_26_389
*3943 FILLER_26_39
*3944 FILLER_26_396
*3945 FILLER_26_4
*3946 FILLER_26_403
*3947 FILLER_26_410
*3948 FILLER_26_417
*3949 FILLER_26_424
*3950 FILLER_26_431
*3951 FILLER_26_438
*3952 FILLER_26_445
*3953 FILLER_26_452
*3954 FILLER_26_459
*3955 FILLER_26_46
*3956 FILLER_26_466
*3957 FILLER_26_473
*3958 FILLER_26_480
*3959 FILLER_26_487
*3960 FILLER_26_494
*3961 FILLER_26_501
*3962 FILLER_26_508
*3963 FILLER_26_515
*3964 FILLER_26_522
*3965 FILLER_26_529
*3966 FILLER_26_53
*3967 FILLER_26_536
*3968 FILLER_26_543
*3969 FILLER_26_550
*3970 FILLER_26_557
*3971 FILLER_26_564
*3972 FILLER_26_571
*3973 FILLER_26_578
*3974 FILLER_26_585
*3975 FILLER_26_592
*3976 FILLER_26_599
*3977 FILLER_26_60
*3978 FILLER_26_606
*3979 FILLER_26_613
*3980 FILLER_26_620
*3981 FILLER_26_627
*3982 FILLER_26_634
*3983 FILLER_26_641
*3984 FILLER_26_648
*3985 FILLER_26_655
*3986 FILLER_26_662
*3987 FILLER_26_669
*3988 FILLER_26_67
*3989 FILLER_26_676
*3990 FILLER_26_683
*3991 FILLER_26_690
*3992 FILLER_26_697
*3993 FILLER_26_704
*3994 FILLER_26_711
*3995 FILLER_26_718
*3996 FILLER_26_725
*3997 FILLER_26_732
*3998 FILLER_26_739
*3999 FILLER_26_74
*4000 FILLER_26_746
*4001 FILLER_26_753
*4002 FILLER_26_760
*4003 FILLER_26_767
*4004 FILLER_26_774
*4005 FILLER_26_781
*4006 FILLER_26_788
*4007 FILLER_26_795
*4008 FILLER_26_802
*4009 FILLER_26_809
*4010 FILLER_26_81
*4011 FILLER_26_816
*4012 FILLER_26_823
*4013 FILLER_26_830
*4014 FILLER_26_837
*4015 FILLER_26_844
*4016 FILLER_26_851
*4017 FILLER_26_858
*4018 FILLER_26_865
*4019 FILLER_26_872
*4020 FILLER_26_879
*4021 FILLER_26_88
*4022 FILLER_26_886
*4023 FILLER_26_893
*4024 FILLER_26_900
*4025 FILLER_26_907
*4026 FILLER_26_914
*4027 FILLER_26_921
*4028 FILLER_26_928
*4029 FILLER_26_935
*4030 FILLER_26_942
*4031 FILLER_26_949
*4032 FILLER_26_95
*4033 FILLER_26_956
*4034 FILLER_26_963
*4035 FILLER_26_970
*4036 FILLER_26_977
*4037 FILLER_26_984
*4038 FILLER_26_991
*4039 FILLER_26_998
*4040 FILLER_27_1005
*4041 FILLER_27_1012
*4042 FILLER_27_1019
*4043 FILLER_27_102
*4044 FILLER_27_1026
*4045 FILLER_27_1028
*4046 FILLER_27_109
*4047 FILLER_27_11
*4048 FILLER_27_116
*4049 FILLER_27_123
*4050 FILLER_27_130
*4051 FILLER_27_137
*4052 FILLER_27_144
*4053 FILLER_27_151
*4054 FILLER_27_158
*4055 FILLER_27_165
*4056 FILLER_27_172
*4057 FILLER_27_179
*4058 FILLER_27_18
*4059 FILLER_27_186
*4060 FILLER_27_193
*4061 FILLER_27_200
*4062 FILLER_27_207
*4063 FILLER_27_214
*4064 FILLER_27_221
*4065 FILLER_27_228
*4066 FILLER_27_235
*4067 FILLER_27_242
*4068 FILLER_27_249
*4069 FILLER_27_25
*4070 FILLER_27_256
*4071 FILLER_27_263
*4072 FILLER_27_270
*4073 FILLER_27_277
*4074 FILLER_27_284
*4075 FILLER_27_291
*4076 FILLER_27_298
*4077 FILLER_27_305
*4078 FILLER_27_312
*4079 FILLER_27_319
*4080 FILLER_27_32
*4081 FILLER_27_326
*4082 FILLER_27_333
*4083 FILLER_27_340
*4084 FILLER_27_347
*4085 FILLER_27_354
*4086 FILLER_27_361
*4087 FILLER_27_368
*4088 FILLER_27_375
*4089 FILLER_27_382
*4090 FILLER_27_389
*4091 FILLER_27_39
*4092 FILLER_27_396
*4093 FILLER_27_4
*4094 FILLER_27_403
*4095 FILLER_27_410
*4096 FILLER_27_417
*4097 FILLER_27_424
*4098 FILLER_27_431
*4099 FILLER_27_438
*4100 FILLER_27_445
*4101 FILLER_27_452
*4102 FILLER_27_459
*4103 FILLER_27_46
*4104 FILLER_27_466
*4105 FILLER_27_473
*4106 FILLER_27_480
*4107 FILLER_27_487
*4108 FILLER_27_494
*4109 FILLER_27_501
*4110 FILLER_27_508
*4111 FILLER_27_515
*4112 FILLER_27_522
*4113 FILLER_27_529
*4114 FILLER_27_53
*4115 FILLER_27_536
*4116 FILLER_27_543
*4117 FILLER_27_550
*4118 FILLER_27_557
*4119 FILLER_27_564
*4120 FILLER_27_571
*4121 FILLER_27_578
*4122 FILLER_27_585
*4123 FILLER_27_592
*4124 FILLER_27_599
*4125 FILLER_27_60
*4126 FILLER_27_606
*4127 FILLER_27_613
*4128 FILLER_27_620
*4129 FILLER_27_627
*4130 FILLER_27_634
*4131 FILLER_27_641
*4132 FILLER_27_648
*4133 FILLER_27_655
*4134 FILLER_27_662
*4135 FILLER_27_669
*4136 FILLER_27_67
*4137 FILLER_27_676
*4138 FILLER_27_683
*4139 FILLER_27_690
*4140 FILLER_27_697
*4141 FILLER_27_704
*4142 FILLER_27_711
*4143 FILLER_27_718
*4144 FILLER_27_725
*4145 FILLER_27_732
*4146 FILLER_27_739
*4147 FILLER_27_74
*4148 FILLER_27_746
*4149 FILLER_27_753
*4150 FILLER_27_760
*4151 FILLER_27_767
*4152 FILLER_27_774
*4153 FILLER_27_781
*4154 FILLER_27_788
*4155 FILLER_27_795
*4156 FILLER_27_802
*4157 FILLER_27_809
*4158 FILLER_27_81
*4159 FILLER_27_816
*4160 FILLER_27_823
*4161 FILLER_27_830
*4162 FILLER_27_837
*4163 FILLER_27_844
*4164 FILLER_27_851
*4165 FILLER_27_858
*4166 FILLER_27_865
*4167 FILLER_27_872
*4168 FILLER_27_879
*4169 FILLER_27_88
*4170 FILLER_27_886
*4171 FILLER_27_893
*4172 FILLER_27_900
*4173 FILLER_27_907
*4174 FILLER_27_914
*4175 FILLER_27_921
*4176 FILLER_27_928
*4177 FILLER_27_935
*4178 FILLER_27_942
*4179 FILLER_27_949
*4180 FILLER_27_95
*4181 FILLER_27_956
*4182 FILLER_27_963
*4183 FILLER_27_970
*4184 FILLER_27_977
*4185 FILLER_27_984
*4186 FILLER_27_991
*4187 FILLER_27_998
*4188 FILLER_28_1005
*4189 FILLER_28_1012
*4190 FILLER_28_1019
*4191 FILLER_28_102
*4192 FILLER_28_1026
*4193 FILLER_28_1028
*4194 FILLER_28_109
*4195 FILLER_28_11
*4196 FILLER_28_116
*4197 FILLER_28_123
*4198 FILLER_28_130
*4199 FILLER_28_137
*4200 FILLER_28_144
*4201 FILLER_28_151
*4202 FILLER_28_158
*4203 FILLER_28_165
*4204 FILLER_28_172
*4205 FILLER_28_179
*4206 FILLER_28_18
*4207 FILLER_28_186
*4208 FILLER_28_193
*4209 FILLER_28_200
*4210 FILLER_28_207
*4211 FILLER_28_214
*4212 FILLER_28_221
*4213 FILLER_28_228
*4214 FILLER_28_235
*4215 FILLER_28_242
*4216 FILLER_28_249
*4217 FILLER_28_25
*4218 FILLER_28_256
*4219 FILLER_28_263
*4220 FILLER_28_270
*4221 FILLER_28_277
*4222 FILLER_28_284
*4223 FILLER_28_291
*4224 FILLER_28_298
*4225 FILLER_28_305
*4226 FILLER_28_312
*4227 FILLER_28_319
*4228 FILLER_28_32
*4229 FILLER_28_326
*4230 FILLER_28_333
*4231 FILLER_28_340
*4232 FILLER_28_347
*4233 FILLER_28_354
*4234 FILLER_28_361
*4235 FILLER_28_368
*4236 FILLER_28_375
*4237 FILLER_28_382
*4238 FILLER_28_389
*4239 FILLER_28_39
*4240 FILLER_28_396
*4241 FILLER_28_4
*4242 FILLER_28_403
*4243 FILLER_28_410
*4244 FILLER_28_417
*4245 FILLER_28_424
*4246 FILLER_28_431
*4247 FILLER_28_438
*4248 FILLER_28_445
*4249 FILLER_28_452
*4250 FILLER_28_459
*4251 FILLER_28_46
*4252 FILLER_28_466
*4253 FILLER_28_473
*4254 FILLER_28_480
*4255 FILLER_28_487
*4256 FILLER_28_494
*4257 FILLER_28_501
*4258 FILLER_28_508
*4259 FILLER_28_515
*4260 FILLER_28_522
*4261 FILLER_28_529
*4262 FILLER_28_53
*4263 FILLER_28_536
*4264 FILLER_28_543
*4265 FILLER_28_550
*4266 FILLER_28_557
*4267 FILLER_28_564
*4268 FILLER_28_571
*4269 FILLER_28_578
*4270 FILLER_28_585
*4271 FILLER_28_592
*4272 FILLER_28_599
*4273 FILLER_28_60
*4274 FILLER_28_606
*4275 FILLER_28_613
*4276 FILLER_28_620
*4277 FILLER_28_627
*4278 FILLER_28_634
*4279 FILLER_28_641
*4280 FILLER_28_648
*4281 FILLER_28_655
*4282 FILLER_28_662
*4283 FILLER_28_669
*4284 FILLER_28_67
*4285 FILLER_28_676
*4286 FILLER_28_683
*4287 FILLER_28_690
*4288 FILLER_28_697
*4289 FILLER_28_704
*4290 FILLER_28_711
*4291 FILLER_28_718
*4292 FILLER_28_725
*4293 FILLER_28_732
*4294 FILLER_28_739
*4295 FILLER_28_74
*4296 FILLER_28_746
*4297 FILLER_28_753
*4298 FILLER_28_760
*4299 FILLER_28_767
*4300 FILLER_28_774
*4301 FILLER_28_781
*4302 FILLER_28_788
*4303 FILLER_28_795
*4304 FILLER_28_802
*4305 FILLER_28_809
*4306 FILLER_28_81
*4307 FILLER_28_816
*4308 FILLER_28_823
*4309 FILLER_28_830
*4310 FILLER_28_837
*4311 FILLER_28_844
*4312 FILLER_28_851
*4313 FILLER_28_858
*4314 FILLER_28_865
*4315 FILLER_28_872
*4316 FILLER_28_879
*4317 FILLER_28_88
*4318 FILLER_28_886
*4319 FILLER_28_893
*4320 FILLER_28_900
*4321 FILLER_28_907
*4322 FILLER_28_914
*4323 FILLER_28_921
*4324 FILLER_28_928
*4325 FILLER_28_935
*4326 FILLER_28_942
*4327 FILLER_28_949
*4328 FILLER_28_95
*4329 FILLER_28_956
*4330 FILLER_28_963
*4331 FILLER_28_970
*4332 FILLER_28_977
*4333 FILLER_28_984
*4334 FILLER_28_991
*4335 FILLER_28_998
*4336 FILLER_29_1005
*4337 FILLER_29_1012
*4338 FILLER_29_1019
*4339 FILLER_29_102
*4340 FILLER_29_1026
*4341 FILLER_29_1028
*4342 FILLER_29_109
*4343 FILLER_29_11
*4344 FILLER_29_116
*4345 FILLER_29_123
*4346 FILLER_29_130
*4347 FILLER_29_137
*4348 FILLER_29_144
*4349 FILLER_29_151
*4350 FILLER_29_158
*4351 FILLER_29_165
*4352 FILLER_29_172
*4353 FILLER_29_179
*4354 FILLER_29_18
*4355 FILLER_29_186
*4356 FILLER_29_193
*4357 FILLER_29_200
*4358 FILLER_29_207
*4359 FILLER_29_214
*4360 FILLER_29_221
*4361 FILLER_29_228
*4362 FILLER_29_235
*4363 FILLER_29_242
*4364 FILLER_29_249
*4365 FILLER_29_25
*4366 FILLER_29_256
*4367 FILLER_29_263
*4368 FILLER_29_270
*4369 FILLER_29_277
*4370 FILLER_29_284
*4371 FILLER_29_291
*4372 FILLER_29_298
*4373 FILLER_29_305
*4374 FILLER_29_312
*4375 FILLER_29_319
*4376 FILLER_29_32
*4377 FILLER_29_326
*4378 FILLER_29_333
*4379 FILLER_29_340
*4380 FILLER_29_347
*4381 FILLER_29_354
*4382 FILLER_29_361
*4383 FILLER_29_368
*4384 FILLER_29_375
*4385 FILLER_29_382
*4386 FILLER_29_389
*4387 FILLER_29_39
*4388 FILLER_29_396
*4389 FILLER_29_4
*4390 FILLER_29_403
*4391 FILLER_29_410
*4392 FILLER_29_417
*4393 FILLER_29_424
*4394 FILLER_29_431
*4395 FILLER_29_438
*4396 FILLER_29_445
*4397 FILLER_29_452
*4398 FILLER_29_459
*4399 FILLER_29_46
*4400 FILLER_29_466
*4401 FILLER_29_473
*4402 FILLER_29_480
*4403 FILLER_29_487
*4404 FILLER_29_494
*4405 FILLER_29_501
*4406 FILLER_29_508
*4407 FILLER_29_515
*4408 FILLER_29_522
*4409 FILLER_29_529
*4410 FILLER_29_53
*4411 FILLER_29_536
*4412 FILLER_29_543
*4413 FILLER_29_550
*4414 FILLER_29_557
*4415 FILLER_29_564
*4416 FILLER_29_571
*4417 FILLER_29_578
*4418 FILLER_29_585
*4419 FILLER_29_592
*4420 FILLER_29_599
*4421 FILLER_29_60
*4422 FILLER_29_606
*4423 FILLER_29_613
*4424 FILLER_29_620
*4425 FILLER_29_627
*4426 FILLER_29_634
*4427 FILLER_29_641
*4428 FILLER_29_648
*4429 FILLER_29_655
*4430 FILLER_29_662
*4431 FILLER_29_669
*4432 FILLER_29_67
*4433 FILLER_29_676
*4434 FILLER_29_683
*4435 FILLER_29_690
*4436 FILLER_29_697
*4437 FILLER_29_704
*4438 FILLER_29_711
*4439 FILLER_29_718
*4440 FILLER_29_725
*4441 FILLER_29_732
*4442 FILLER_29_739
*4443 FILLER_29_74
*4444 FILLER_29_746
*4445 FILLER_29_753
*4446 FILLER_29_760
*4447 FILLER_29_767
*4448 FILLER_29_774
*4449 FILLER_29_781
*4450 FILLER_29_788
*4451 FILLER_29_795
*4452 FILLER_29_802
*4453 FILLER_29_809
*4454 FILLER_29_81
*4455 FILLER_29_816
*4456 FILLER_29_823
*4457 FILLER_29_830
*4458 FILLER_29_837
*4459 FILLER_29_844
*4460 FILLER_29_851
*4461 FILLER_29_858
*4462 FILLER_29_865
*4463 FILLER_29_872
*4464 FILLER_29_879
*4465 FILLER_29_88
*4466 FILLER_29_886
*4467 FILLER_29_893
*4468 FILLER_29_900
*4469 FILLER_29_907
*4470 FILLER_29_914
*4471 FILLER_29_921
*4472 FILLER_29_928
*4473 FILLER_29_935
*4474 FILLER_29_942
*4475 FILLER_29_949
*4476 FILLER_29_95
*4477 FILLER_29_956
*4478 FILLER_29_963
*4479 FILLER_29_970
*4480 FILLER_29_977
*4481 FILLER_29_984
*4482 FILLER_29_991
*4483 FILLER_29_998
*4484 FILLER_2_0
*4485 FILLER_2_1001
*4486 FILLER_2_1008
*4487 FILLER_2_1015
*4488 FILLER_2_1022
*4489 FILLER_2_105
*4490 FILLER_2_112
*4491 FILLER_2_119
*4492 FILLER_2_126
*4493 FILLER_2_133
*4494 FILLER_2_14
*4495 FILLER_2_140
*4496 FILLER_2_147
*4497 FILLER_2_154
*4498 FILLER_2_161
*4499 FILLER_2_168
*4500 FILLER_2_175
*4501 FILLER_2_182
*4502 FILLER_2_189
*4503 FILLER_2_196
*4504 FILLER_2_203
*4505 FILLER_2_21
*4506 FILLER_2_210
*4507 FILLER_2_217
*4508 FILLER_2_224
*4509 FILLER_2_231
*4510 FILLER_2_238
*4511 FILLER_2_245
*4512 FILLER_2_252
*4513 FILLER_2_259
*4514 FILLER_2_266
*4515 FILLER_2_273
*4516 FILLER_2_28
*4517 FILLER_2_280
*4518 FILLER_2_287
*4519 FILLER_2_294
*4520 FILLER_2_301
*4521 FILLER_2_308
*4522 FILLER_2_315
*4523 FILLER_2_322
*4524 FILLER_2_329
*4525 FILLER_2_336
*4526 FILLER_2_343
*4527 FILLER_2_35
*4528 FILLER_2_350
*4529 FILLER_2_357
*4530 FILLER_2_364
*4531 FILLER_2_371
*4532 FILLER_2_378
*4533 FILLER_2_385
*4534 FILLER_2_392
*4535 FILLER_2_399
*4536 FILLER_2_406
*4537 FILLER_2_413
*4538 FILLER_2_42
*4539 FILLER_2_420
*4540 FILLER_2_427
*4541 FILLER_2_434
*4542 FILLER_2_441
*4543 FILLER_2_448
*4544 FILLER_2_455
*4545 FILLER_2_462
*4546 FILLER_2_469
*4547 FILLER_2_476
*4548 FILLER_2_483
*4549 FILLER_2_49
*4550 FILLER_2_490
*4551 FILLER_2_497
*4552 FILLER_2_504
*4553 FILLER_2_511
*4554 FILLER_2_518
*4555 FILLER_2_525
*4556 FILLER_2_532
*4557 FILLER_2_539
*4558 FILLER_2_546
*4559 FILLER_2_553
*4560 FILLER_2_56
*4561 FILLER_2_560
*4562 FILLER_2_567
*4563 FILLER_2_574
*4564 FILLER_2_581
*4565 FILLER_2_588
*4566 FILLER_2_595
*4567 FILLER_2_602
*4568 FILLER_2_609
*4569 FILLER_2_616
*4570 FILLER_2_623
*4571 FILLER_2_63
*4572 FILLER_2_630
*4573 FILLER_2_637
*4574 FILLER_2_644
*4575 FILLER_2_651
*4576 FILLER_2_658
*4577 FILLER_2_665
*4578 FILLER_2_672
*4579 FILLER_2_679
*4580 FILLER_2_686
*4581 FILLER_2_693
*4582 FILLER_2_7
*4583 FILLER_2_70
*4584 FILLER_2_700
*4585 FILLER_2_707
*4586 FILLER_2_714
*4587 FILLER_2_721
*4588 FILLER_2_728
*4589 FILLER_2_735
*4590 FILLER_2_742
*4591 FILLER_2_749
*4592 FILLER_2_756
*4593 FILLER_2_763
*4594 FILLER_2_77
*4595 FILLER_2_770
*4596 FILLER_2_777
*4597 FILLER_2_784
*4598 FILLER_2_791
*4599 FILLER_2_798
*4600 FILLER_2_805
*4601 FILLER_2_812
*4602 FILLER_2_819
*4603 FILLER_2_826
*4604 FILLER_2_833
*4605 FILLER_2_84
*4606 FILLER_2_840
*4607 FILLER_2_847
*4608 FILLER_2_854
*4609 FILLER_2_861
*4610 FILLER_2_868
*4611 FILLER_2_875
*4612 FILLER_2_882
*4613 FILLER_2_889
*4614 FILLER_2_896
*4615 FILLER_2_903
*4616 FILLER_2_91
*4617 FILLER_2_910
*4618 FILLER_2_917
*4619 FILLER_2_924
*4620 FILLER_2_931
*4621 FILLER_2_938
*4622 FILLER_2_945
*4623 FILLER_2_952
*4624 FILLER_2_959
*4625 FILLER_2_966
*4626 FILLER_2_973
*4627 FILLER_2_98
*4628 FILLER_2_980
*4629 FILLER_2_987
*4630 FILLER_2_994
*4631 FILLER_30_1005
*4632 FILLER_30_1012
*4633 FILLER_30_1019
*4634 FILLER_30_102
*4635 FILLER_30_1026
*4636 FILLER_30_1028
*4637 FILLER_30_109
*4638 FILLER_30_11
*4639 FILLER_30_116
*4640 FILLER_30_123
*4641 FILLER_30_130
*4642 FILLER_30_137
*4643 FILLER_30_144
*4644 FILLER_30_151
*4645 FILLER_30_158
*4646 FILLER_30_165
*4647 FILLER_30_172
*4648 FILLER_30_179
*4649 FILLER_30_18
*4650 FILLER_30_186
*4651 FILLER_30_193
*4652 FILLER_30_200
*4653 FILLER_30_207
*4654 FILLER_30_214
*4655 FILLER_30_221
*4656 FILLER_30_228
*4657 FILLER_30_235
*4658 FILLER_30_242
*4659 FILLER_30_249
*4660 FILLER_30_25
*4661 FILLER_30_256
*4662 FILLER_30_263
*4663 FILLER_30_270
*4664 FILLER_30_277
*4665 FILLER_30_284
*4666 FILLER_30_291
*4667 FILLER_30_298
*4668 FILLER_30_305
*4669 FILLER_30_312
*4670 FILLER_30_319
*4671 FILLER_30_32
*4672 FILLER_30_326
*4673 FILLER_30_333
*4674 FILLER_30_340
*4675 FILLER_30_347
*4676 FILLER_30_354
*4677 FILLER_30_361
*4678 FILLER_30_368
*4679 FILLER_30_375
*4680 FILLER_30_382
*4681 FILLER_30_389
*4682 FILLER_30_39
*4683 FILLER_30_396
*4684 FILLER_30_4
*4685 FILLER_30_403
*4686 FILLER_30_410
*4687 FILLER_30_417
*4688 FILLER_30_424
*4689 FILLER_30_431
*4690 FILLER_30_438
*4691 FILLER_30_445
*4692 FILLER_30_452
*4693 FILLER_30_459
*4694 FILLER_30_46
*4695 FILLER_30_466
*4696 FILLER_30_473
*4697 FILLER_30_480
*4698 FILLER_30_487
*4699 FILLER_30_494
*4700 FILLER_30_501
*4701 FILLER_30_508
*4702 FILLER_30_515
*4703 FILLER_30_522
*4704 FILLER_30_529
*4705 FILLER_30_53
*4706 FILLER_30_536
*4707 FILLER_30_543
*4708 FILLER_30_550
*4709 FILLER_30_557
*4710 FILLER_30_564
*4711 FILLER_30_571
*4712 FILLER_30_578
*4713 FILLER_30_585
*4714 FILLER_30_592
*4715 FILLER_30_599
*4716 FILLER_30_60
*4717 FILLER_30_606
*4718 FILLER_30_613
*4719 FILLER_30_620
*4720 FILLER_30_627
*4721 FILLER_30_634
*4722 FILLER_30_641
*4723 FILLER_30_648
*4724 FILLER_30_655
*4725 FILLER_30_662
*4726 FILLER_30_669
*4727 FILLER_30_67
*4728 FILLER_30_676
*4729 FILLER_30_683
*4730 FILLER_30_690
*4731 FILLER_30_697
*4732 FILLER_30_704
*4733 FILLER_30_711
*4734 FILLER_30_718
*4735 FILLER_30_725
*4736 FILLER_30_732
*4737 FILLER_30_739
*4738 FILLER_30_74
*4739 FILLER_30_746
*4740 FILLER_30_753
*4741 FILLER_30_760
*4742 FILLER_30_767
*4743 FILLER_30_774
*4744 FILLER_30_781
*4745 FILLER_30_788
*4746 FILLER_30_795
*4747 FILLER_30_802
*4748 FILLER_30_809
*4749 FILLER_30_81
*4750 FILLER_30_816
*4751 FILLER_30_823
*4752 FILLER_30_830
*4753 FILLER_30_837
*4754 FILLER_30_844
*4755 FILLER_30_851
*4756 FILLER_30_858
*4757 FILLER_30_865
*4758 FILLER_30_872
*4759 FILLER_30_879
*4760 FILLER_30_88
*4761 FILLER_30_886
*4762 FILLER_30_893
*4763 FILLER_30_900
*4764 FILLER_30_907
*4765 FILLER_30_914
*4766 FILLER_30_921
*4767 FILLER_30_928
*4768 FILLER_30_935
*4769 FILLER_30_942
*4770 FILLER_30_949
*4771 FILLER_30_95
*4772 FILLER_30_956
*4773 FILLER_30_963
*4774 FILLER_30_970
*4775 FILLER_30_977
*4776 FILLER_30_984
*4777 FILLER_30_991
*4778 FILLER_30_998
*4779 FILLER_31_0
*4780 FILLER_31_1001
*4781 FILLER_31_1008
*4782 FILLER_31_1015
*4783 FILLER_31_1022
*4784 FILLER_31_105
*4785 FILLER_31_112
*4786 FILLER_31_119
*4787 FILLER_31_126
*4788 FILLER_31_133
*4789 FILLER_31_14
*4790 FILLER_31_140
*4791 FILLER_31_147
*4792 FILLER_31_154
*4793 FILLER_31_161
*4794 FILLER_31_168
*4795 FILLER_31_175
*4796 FILLER_31_182
*4797 FILLER_31_189
*4798 FILLER_31_196
*4799 FILLER_31_203
*4800 FILLER_31_21
*4801 FILLER_31_210
*4802 FILLER_31_217
*4803 FILLER_31_224
*4804 FILLER_31_231
*4805 FILLER_31_238
*4806 FILLER_31_245
*4807 FILLER_31_252
*4808 FILLER_31_259
*4809 FILLER_31_266
*4810 FILLER_31_273
*4811 FILLER_31_28
*4812 FILLER_31_280
*4813 FILLER_31_287
*4814 FILLER_31_294
*4815 FILLER_31_301
*4816 FILLER_31_308
*4817 FILLER_31_315
*4818 FILLER_31_322
*4819 FILLER_31_329
*4820 FILLER_31_336
*4821 FILLER_31_343
*4822 FILLER_31_35
*4823 FILLER_31_350
*4824 FILLER_31_357
*4825 FILLER_31_364
*4826 FILLER_31_371
*4827 FILLER_31_378
*4828 FILLER_31_385
*4829 FILLER_31_392
*4830 FILLER_31_399
*4831 FILLER_31_406
*4832 FILLER_31_413
*4833 FILLER_31_42
*4834 FILLER_31_420
*4835 FILLER_31_427
*4836 FILLER_31_434
*4837 FILLER_31_441
*4838 FILLER_31_448
*4839 FILLER_31_455
*4840 FILLER_31_462
*4841 FILLER_31_469
*4842 FILLER_31_476
*4843 FILLER_31_483
*4844 FILLER_31_49
*4845 FILLER_31_490
*4846 FILLER_31_497
*4847 FILLER_31_504
*4848 FILLER_31_511
*4849 FILLER_31_518
*4850 FILLER_31_525
*4851 FILLER_31_532
*4852 FILLER_31_539
*4853 FILLER_31_546
*4854 FILLER_31_553
*4855 FILLER_31_56
*4856 FILLER_31_560
*4857 FILLER_31_567
*4858 FILLER_31_574
*4859 FILLER_31_581
*4860 FILLER_31_588
*4861 FILLER_31_595
*4862 FILLER_31_602
*4863 FILLER_31_609
*4864 FILLER_31_616
*4865 FILLER_31_623
*4866 FILLER_31_63
*4867 FILLER_31_630
*4868 FILLER_31_637
*4869 FILLER_31_644
*4870 FILLER_31_651
*4871 FILLER_31_658
*4872 FILLER_31_665
*4873 FILLER_31_672
*4874 FILLER_31_679
*4875 FILLER_31_686
*4876 FILLER_31_693
*4877 FILLER_31_7
*4878 FILLER_31_70
*4879 FILLER_31_700
*4880 FILLER_31_707
*4881 FILLER_31_714
*4882 FILLER_31_721
*4883 FILLER_31_728
*4884 FILLER_31_735
*4885 FILLER_31_742
*4886 FILLER_31_749
*4887 FILLER_31_756
*4888 FILLER_31_763
*4889 FILLER_31_77
*4890 FILLER_31_770
*4891 FILLER_31_777
*4892 FILLER_31_784
*4893 FILLER_31_791
*4894 FILLER_31_798
*4895 FILLER_31_805
*4896 FILLER_31_812
*4897 FILLER_31_819
*4898 FILLER_31_826
*4899 FILLER_31_833
*4900 FILLER_31_84
*4901 FILLER_31_840
*4902 FILLER_31_847
*4903 FILLER_31_854
*4904 FILLER_31_861
*4905 FILLER_31_868
*4906 FILLER_31_875
*4907 FILLER_31_882
*4908 FILLER_31_889
*4909 FILLER_31_896
*4910 FILLER_31_903
*4911 FILLER_31_91
*4912 FILLER_31_910
*4913 FILLER_31_917
*4914 FILLER_31_924
*4915 FILLER_31_931
*4916 FILLER_31_938
*4917 FILLER_31_945
*4918 FILLER_31_952
*4919 FILLER_31_959
*4920 FILLER_31_966
*4921 FILLER_31_973
*4922 FILLER_31_98
*4923 FILLER_31_980
*4924 FILLER_31_987
*4925 FILLER_31_994
*4926 FILLER_32_1005
*4927 FILLER_32_1012
*4928 FILLER_32_1019
*4929 FILLER_32_102
*4930 FILLER_32_1026
*4931 FILLER_32_1028
*4932 FILLER_32_109
*4933 FILLER_32_11
*4934 FILLER_32_116
*4935 FILLER_32_123
*4936 FILLER_32_130
*4937 FILLER_32_137
*4938 FILLER_32_144
*4939 FILLER_32_151
*4940 FILLER_32_158
*4941 FILLER_32_165
*4942 FILLER_32_172
*4943 FILLER_32_179
*4944 FILLER_32_18
*4945 FILLER_32_186
*4946 FILLER_32_193
*4947 FILLER_32_200
*4948 FILLER_32_207
*4949 FILLER_32_214
*4950 FILLER_32_221
*4951 FILLER_32_228
*4952 FILLER_32_235
*4953 FILLER_32_242
*4954 FILLER_32_249
*4955 FILLER_32_25
*4956 FILLER_32_256
*4957 FILLER_32_263
*4958 FILLER_32_270
*4959 FILLER_32_277
*4960 FILLER_32_284
*4961 FILLER_32_291
*4962 FILLER_32_298
*4963 FILLER_32_305
*4964 FILLER_32_312
*4965 FILLER_32_319
*4966 FILLER_32_32
*4967 FILLER_32_326
*4968 FILLER_32_333
*4969 FILLER_32_340
*4970 FILLER_32_347
*4971 FILLER_32_354
*4972 FILLER_32_361
*4973 FILLER_32_368
*4974 FILLER_32_375
*4975 FILLER_32_382
*4976 FILLER_32_389
*4977 FILLER_32_39
*4978 FILLER_32_396
*4979 FILLER_32_4
*4980 FILLER_32_403
*4981 FILLER_32_410
*4982 FILLER_32_417
*4983 FILLER_32_424
*4984 FILLER_32_431
*4985 FILLER_32_438
*4986 FILLER_32_445
*4987 FILLER_32_452
*4988 FILLER_32_459
*4989 FILLER_32_46
*4990 FILLER_32_466
*4991 FILLER_32_473
*4992 FILLER_32_480
*4993 FILLER_32_487
*4994 FILLER_32_494
*4995 FILLER_32_501
*4996 FILLER_32_508
*4997 FILLER_32_515
*4998 FILLER_32_522
*4999 FILLER_32_529
*5000 FILLER_32_53
*5001 FILLER_32_536
*5002 FILLER_32_543
*5003 FILLER_32_550
*5004 FILLER_32_557
*5005 FILLER_32_564
*5006 FILLER_32_571
*5007 FILLER_32_578
*5008 FILLER_32_585
*5009 FILLER_32_592
*5010 FILLER_32_599
*5011 FILLER_32_60
*5012 FILLER_32_606
*5013 FILLER_32_613
*5014 FILLER_32_620
*5015 FILLER_32_627
*5016 FILLER_32_634
*5017 FILLER_32_641
*5018 FILLER_32_648
*5019 FILLER_32_655
*5020 FILLER_32_662
*5021 FILLER_32_669
*5022 FILLER_32_67
*5023 FILLER_32_676
*5024 FILLER_32_683
*5025 FILLER_32_690
*5026 FILLER_32_697
*5027 FILLER_32_704
*5028 FILLER_32_711
*5029 FILLER_32_718
*5030 FILLER_32_725
*5031 FILLER_32_732
*5032 FILLER_32_739
*5033 FILLER_32_74
*5034 FILLER_32_746
*5035 FILLER_32_753
*5036 FILLER_32_760
*5037 FILLER_32_767
*5038 FILLER_32_774
*5039 FILLER_32_781
*5040 FILLER_32_788
*5041 FILLER_32_795
*5042 FILLER_32_802
*5043 FILLER_32_809
*5044 FILLER_32_81
*5045 FILLER_32_816
*5046 FILLER_32_823
*5047 FILLER_32_830
*5048 FILLER_32_837
*5049 FILLER_32_844
*5050 FILLER_32_851
*5051 FILLER_32_858
*5052 FILLER_32_865
*5053 FILLER_32_872
*5054 FILLER_32_879
*5055 FILLER_32_88
*5056 FILLER_32_886
*5057 FILLER_32_893
*5058 FILLER_32_900
*5059 FILLER_32_907
*5060 FILLER_32_914
*5061 FILLER_32_921
*5062 FILLER_32_928
*5063 FILLER_32_935
*5064 FILLER_32_942
*5065 FILLER_32_949
*5066 FILLER_32_95
*5067 FILLER_32_956
*5068 FILLER_32_963
*5069 FILLER_32_970
*5070 FILLER_32_977
*5071 FILLER_32_984
*5072 FILLER_32_991
*5073 FILLER_32_998
*5074 FILLER_33_1005
*5075 FILLER_33_1012
*5076 FILLER_33_1019
*5077 FILLER_33_102
*5078 FILLER_33_1026
*5079 FILLER_33_1028
*5080 FILLER_33_109
*5081 FILLER_33_11
*5082 FILLER_33_116
*5083 FILLER_33_123
*5084 FILLER_33_130
*5085 FILLER_33_137
*5086 FILLER_33_144
*5087 FILLER_33_151
*5088 FILLER_33_158
*5089 FILLER_33_165
*5090 FILLER_33_172
*5091 FILLER_33_179
*5092 FILLER_33_18
*5093 FILLER_33_186
*5094 FILLER_33_193
*5095 FILLER_33_200
*5096 FILLER_33_207
*5097 FILLER_33_214
*5098 FILLER_33_221
*5099 FILLER_33_228
*5100 FILLER_33_235
*5101 FILLER_33_242
*5102 FILLER_33_249
*5103 FILLER_33_25
*5104 FILLER_33_256
*5105 FILLER_33_263
*5106 FILLER_33_270
*5107 FILLER_33_277
*5108 FILLER_33_284
*5109 FILLER_33_291
*5110 FILLER_33_298
*5111 FILLER_33_305
*5112 FILLER_33_312
*5113 FILLER_33_319
*5114 FILLER_33_32
*5115 FILLER_33_326
*5116 FILLER_33_333
*5117 FILLER_33_340
*5118 FILLER_33_347
*5119 FILLER_33_354
*5120 FILLER_33_361
*5121 FILLER_33_368
*5122 FILLER_33_375
*5123 FILLER_33_382
*5124 FILLER_33_389
*5125 FILLER_33_39
*5126 FILLER_33_396
*5127 FILLER_33_4
*5128 FILLER_33_403
*5129 FILLER_33_410
*5130 FILLER_33_417
*5131 FILLER_33_424
*5132 FILLER_33_431
*5133 FILLER_33_438
*5134 FILLER_33_445
*5135 FILLER_33_452
*5136 FILLER_33_459
*5137 FILLER_33_46
*5138 FILLER_33_466
*5139 FILLER_33_473
*5140 FILLER_33_480
*5141 FILLER_33_487
*5142 FILLER_33_494
*5143 FILLER_33_501
*5144 FILLER_33_508
*5145 FILLER_33_515
*5146 FILLER_33_522
*5147 FILLER_33_529
*5148 FILLER_33_53
*5149 FILLER_33_536
*5150 FILLER_33_543
*5151 FILLER_33_550
*5152 FILLER_33_557
*5153 FILLER_33_564
*5154 FILLER_33_571
*5155 FILLER_33_578
*5156 FILLER_33_585
*5157 FILLER_33_592
*5158 FILLER_33_599
*5159 FILLER_33_60
*5160 FILLER_33_606
*5161 FILLER_33_613
*5162 FILLER_33_620
*5163 FILLER_33_627
*5164 FILLER_33_634
*5165 FILLER_33_641
*5166 FILLER_33_648
*5167 FILLER_33_655
*5168 FILLER_33_662
*5169 FILLER_33_669
*5170 FILLER_33_67
*5171 FILLER_33_676
*5172 FILLER_33_683
*5173 FILLER_33_690
*5174 FILLER_33_697
*5175 FILLER_33_704
*5176 FILLER_33_711
*5177 FILLER_33_718
*5178 FILLER_33_725
*5179 FILLER_33_732
*5180 FILLER_33_739
*5181 FILLER_33_74
*5182 FILLER_33_746
*5183 FILLER_33_753
*5184 FILLER_33_760
*5185 FILLER_33_767
*5186 FILLER_33_774
*5187 FILLER_33_781
*5188 FILLER_33_788
*5189 FILLER_33_795
*5190 FILLER_33_802
*5191 FILLER_33_809
*5192 FILLER_33_81
*5193 FILLER_33_816
*5194 FILLER_33_823
*5195 FILLER_33_830
*5196 FILLER_33_837
*5197 FILLER_33_844
*5198 FILLER_33_851
*5199 FILLER_33_858
*5200 FILLER_33_865
*5201 FILLER_33_872
*5202 FILLER_33_879
*5203 FILLER_33_88
*5204 FILLER_33_886
*5205 FILLER_33_893
*5206 FILLER_33_900
*5207 FILLER_33_907
*5208 FILLER_33_914
*5209 FILLER_33_921
*5210 FILLER_33_928
*5211 FILLER_33_935
*5212 FILLER_33_942
*5213 FILLER_33_949
*5214 FILLER_33_95
*5215 FILLER_33_956
*5216 FILLER_33_963
*5217 FILLER_33_970
*5218 FILLER_33_977
*5219 FILLER_33_984
*5220 FILLER_33_991
*5221 FILLER_33_998
*5222 FILLER_34_1005
*5223 FILLER_34_1012
*5224 FILLER_34_1019
*5225 FILLER_34_102
*5226 FILLER_34_1026
*5227 FILLER_34_1028
*5228 FILLER_34_109
*5229 FILLER_34_11
*5230 FILLER_34_116
*5231 FILLER_34_123
*5232 FILLER_34_130
*5233 FILLER_34_137
*5234 FILLER_34_144
*5235 FILLER_34_151
*5236 FILLER_34_158
*5237 FILLER_34_165
*5238 FILLER_34_172
*5239 FILLER_34_179
*5240 FILLER_34_18
*5241 FILLER_34_186
*5242 FILLER_34_193
*5243 FILLER_34_200
*5244 FILLER_34_207
*5245 FILLER_34_214
*5246 FILLER_34_221
*5247 FILLER_34_228
*5248 FILLER_34_235
*5249 FILLER_34_242
*5250 FILLER_34_249
*5251 FILLER_34_25
*5252 FILLER_34_256
*5253 FILLER_34_263
*5254 FILLER_34_270
*5255 FILLER_34_277
*5256 FILLER_34_284
*5257 FILLER_34_291
*5258 FILLER_34_298
*5259 FILLER_34_305
*5260 FILLER_34_312
*5261 FILLER_34_319
*5262 FILLER_34_32
*5263 FILLER_34_326
*5264 FILLER_34_333
*5265 FILLER_34_340
*5266 FILLER_34_347
*5267 FILLER_34_354
*5268 FILLER_34_361
*5269 FILLER_34_368
*5270 FILLER_34_375
*5271 FILLER_34_382
*5272 FILLER_34_389
*5273 FILLER_34_39
*5274 FILLER_34_396
*5275 FILLER_34_4
*5276 FILLER_34_403
*5277 FILLER_34_410
*5278 FILLER_34_417
*5279 FILLER_34_424
*5280 FILLER_34_431
*5281 FILLER_34_438
*5282 FILLER_34_445
*5283 FILLER_34_452
*5284 FILLER_34_459
*5285 FILLER_34_46
*5286 FILLER_34_466
*5287 FILLER_34_473
*5288 FILLER_34_480
*5289 FILLER_34_487
*5290 FILLER_34_494
*5291 FILLER_34_501
*5292 FILLER_34_508
*5293 FILLER_34_515
*5294 FILLER_34_522
*5295 FILLER_34_529
*5296 FILLER_34_53
*5297 FILLER_34_536
*5298 FILLER_34_543
*5299 FILLER_34_550
*5300 FILLER_34_557
*5301 FILLER_34_564
*5302 FILLER_34_571
*5303 FILLER_34_578
*5304 FILLER_34_585
*5305 FILLER_34_592
*5306 FILLER_34_599
*5307 FILLER_34_60
*5308 FILLER_34_606
*5309 FILLER_34_613
*5310 FILLER_34_620
*5311 FILLER_34_627
*5312 FILLER_34_634
*5313 FILLER_34_641
*5314 FILLER_34_648
*5315 FILLER_34_655
*5316 FILLER_34_662
*5317 FILLER_34_669
*5318 FILLER_34_67
*5319 FILLER_34_676
*5320 FILLER_34_683
*5321 FILLER_34_690
*5322 FILLER_34_697
*5323 FILLER_34_704
*5324 FILLER_34_711
*5325 FILLER_34_718
*5326 FILLER_34_725
*5327 FILLER_34_732
*5328 FILLER_34_739
*5329 FILLER_34_74
*5330 FILLER_34_746
*5331 FILLER_34_753
*5332 FILLER_34_760
*5333 FILLER_34_767
*5334 FILLER_34_774
*5335 FILLER_34_781
*5336 FILLER_34_788
*5337 FILLER_34_795
*5338 FILLER_34_802
*5339 FILLER_34_809
*5340 FILLER_34_81
*5341 FILLER_34_816
*5342 FILLER_34_823
*5343 FILLER_34_830
*5344 FILLER_34_837
*5345 FILLER_34_844
*5346 FILLER_34_851
*5347 FILLER_34_858
*5348 FILLER_34_865
*5349 FILLER_34_872
*5350 FILLER_34_879
*5351 FILLER_34_88
*5352 FILLER_34_886
*5353 FILLER_34_893
*5354 FILLER_34_900
*5355 FILLER_34_907
*5356 FILLER_34_914
*5357 FILLER_34_921
*5358 FILLER_34_928
*5359 FILLER_34_935
*5360 FILLER_34_942
*5361 FILLER_34_949
*5362 FILLER_34_95
*5363 FILLER_34_956
*5364 FILLER_34_963
*5365 FILLER_34_970
*5366 FILLER_34_977
*5367 FILLER_34_984
*5368 FILLER_34_991
*5369 FILLER_34_998
*5370 FILLER_35_1005
*5371 FILLER_35_1012
*5372 FILLER_35_1019
*5373 FILLER_35_102
*5374 FILLER_35_1026
*5375 FILLER_35_1028
*5376 FILLER_35_109
*5377 FILLER_35_11
*5378 FILLER_35_116
*5379 FILLER_35_123
*5380 FILLER_35_130
*5381 FILLER_35_137
*5382 FILLER_35_144
*5383 FILLER_35_151
*5384 FILLER_35_158
*5385 FILLER_35_165
*5386 FILLER_35_172
*5387 FILLER_35_179
*5388 FILLER_35_18
*5389 FILLER_35_186
*5390 FILLER_35_193
*5391 FILLER_35_200
*5392 FILLER_35_207
*5393 FILLER_35_214
*5394 FILLER_35_221
*5395 FILLER_35_228
*5396 FILLER_35_235
*5397 FILLER_35_242
*5398 FILLER_35_249
*5399 FILLER_35_25
*5400 FILLER_35_256
*5401 FILLER_35_263
*5402 FILLER_35_270
*5403 FILLER_35_277
*5404 FILLER_35_284
*5405 FILLER_35_291
*5406 FILLER_35_298
*5407 FILLER_35_305
*5408 FILLER_35_312
*5409 FILLER_35_319
*5410 FILLER_35_32
*5411 FILLER_35_326
*5412 FILLER_35_333
*5413 FILLER_35_340
*5414 FILLER_35_347
*5415 FILLER_35_354
*5416 FILLER_35_361
*5417 FILLER_35_368
*5418 FILLER_35_375
*5419 FILLER_35_382
*5420 FILLER_35_389
*5421 FILLER_35_39
*5422 FILLER_35_396
*5423 FILLER_35_4
*5424 FILLER_35_403
*5425 FILLER_35_410
*5426 FILLER_35_417
*5427 FILLER_35_424
*5428 FILLER_35_431
*5429 FILLER_35_438
*5430 FILLER_35_445
*5431 FILLER_35_452
*5432 FILLER_35_459
*5433 FILLER_35_46
*5434 FILLER_35_466
*5435 FILLER_35_473
*5436 FILLER_35_480
*5437 FILLER_35_487
*5438 FILLER_35_494
*5439 FILLER_35_501
*5440 FILLER_35_508
*5441 FILLER_35_515
*5442 FILLER_35_522
*5443 FILLER_35_529
*5444 FILLER_35_53
*5445 FILLER_35_536
*5446 FILLER_35_543
*5447 FILLER_35_550
*5448 FILLER_35_557
*5449 FILLER_35_564
*5450 FILLER_35_571
*5451 FILLER_35_578
*5452 FILLER_35_585
*5453 FILLER_35_592
*5454 FILLER_35_599
*5455 FILLER_35_60
*5456 FILLER_35_606
*5457 FILLER_35_613
*5458 FILLER_35_620
*5459 FILLER_35_627
*5460 FILLER_35_634
*5461 FILLER_35_641
*5462 FILLER_35_648
*5463 FILLER_35_655
*5464 FILLER_35_662
*5465 FILLER_35_669
*5466 FILLER_35_67
*5467 FILLER_35_676
*5468 FILLER_35_683
*5469 FILLER_35_690
*5470 FILLER_35_697
*5471 FILLER_35_704
*5472 FILLER_35_711
*5473 FILLER_35_718
*5474 FILLER_35_725
*5475 FILLER_35_732
*5476 FILLER_35_739
*5477 FILLER_35_74
*5478 FILLER_35_746
*5479 FILLER_35_753
*5480 FILLER_35_760
*5481 FILLER_35_767
*5482 FILLER_35_774
*5483 FILLER_35_781
*5484 FILLER_35_788
*5485 FILLER_35_795
*5486 FILLER_35_802
*5487 FILLER_35_809
*5488 FILLER_35_81
*5489 FILLER_35_816
*5490 FILLER_35_823
*5491 FILLER_35_830
*5492 FILLER_35_837
*5493 FILLER_35_844
*5494 FILLER_35_851
*5495 FILLER_35_858
*5496 FILLER_35_865
*5497 FILLER_35_872
*5498 FILLER_35_879
*5499 FILLER_35_88
*5500 FILLER_35_886
*5501 FILLER_35_893
*5502 FILLER_35_900
*5503 FILLER_35_907
*5504 FILLER_35_914
*5505 FILLER_35_921
*5506 FILLER_35_928
*5507 FILLER_35_935
*5508 FILLER_35_942
*5509 FILLER_35_949
*5510 FILLER_35_95
*5511 FILLER_35_956
*5512 FILLER_35_963
*5513 FILLER_35_970
*5514 FILLER_35_977
*5515 FILLER_35_984
*5516 FILLER_35_991
*5517 FILLER_35_998
*5518 FILLER_36_1005
*5519 FILLER_36_1012
*5520 FILLER_36_1019
*5521 FILLER_36_102
*5522 FILLER_36_1026
*5523 FILLER_36_1028
*5524 FILLER_36_109
*5525 FILLER_36_11
*5526 FILLER_36_116
*5527 FILLER_36_123
*5528 FILLER_36_130
*5529 FILLER_36_137
*5530 FILLER_36_144
*5531 FILLER_36_151
*5532 FILLER_36_158
*5533 FILLER_36_165
*5534 FILLER_36_172
*5535 FILLER_36_179
*5536 FILLER_36_18
*5537 FILLER_36_186
*5538 FILLER_36_193
*5539 FILLER_36_200
*5540 FILLER_36_207
*5541 FILLER_36_214
*5542 FILLER_36_221
*5543 FILLER_36_228
*5544 FILLER_36_235
*5545 FILLER_36_242
*5546 FILLER_36_249
*5547 FILLER_36_25
*5548 FILLER_36_256
*5549 FILLER_36_263
*5550 FILLER_36_270
*5551 FILLER_36_277
*5552 FILLER_36_284
*5553 FILLER_36_291
*5554 FILLER_36_298
*5555 FILLER_36_305
*5556 FILLER_36_312
*5557 FILLER_36_319
*5558 FILLER_36_32
*5559 FILLER_36_326
*5560 FILLER_36_333
*5561 FILLER_36_340
*5562 FILLER_36_347
*5563 FILLER_36_354
*5564 FILLER_36_361
*5565 FILLER_36_368
*5566 FILLER_36_375
*5567 FILLER_36_382
*5568 FILLER_36_389
*5569 FILLER_36_39
*5570 FILLER_36_396
*5571 FILLER_36_4
*5572 FILLER_36_403
*5573 FILLER_36_410
*5574 FILLER_36_417
*5575 FILLER_36_424
*5576 FILLER_36_431
*5577 FILLER_36_438
*5578 FILLER_36_445
*5579 FILLER_36_452
*5580 FILLER_36_459
*5581 FILLER_36_46
*5582 FILLER_36_466
*5583 FILLER_36_473
*5584 FILLER_36_480
*5585 FILLER_36_487
*5586 FILLER_36_494
*5587 FILLER_36_501
*5588 FILLER_36_508
*5589 FILLER_36_515
*5590 FILLER_36_522
*5591 FILLER_36_529
*5592 FILLER_36_53
*5593 FILLER_36_536
*5594 FILLER_36_543
*5595 FILLER_36_550
*5596 FILLER_36_557
*5597 FILLER_36_564
*5598 FILLER_36_571
*5599 FILLER_36_578
*5600 FILLER_36_585
*5601 FILLER_36_592
*5602 FILLER_36_599
*5603 FILLER_36_60
*5604 FILLER_36_606
*5605 FILLER_36_613
*5606 FILLER_36_620
*5607 FILLER_36_627
*5608 FILLER_36_634
*5609 FILLER_36_641
*5610 FILLER_36_648
*5611 FILLER_36_655
*5612 FILLER_36_662
*5613 FILLER_36_669
*5614 FILLER_36_67
*5615 FILLER_36_676
*5616 FILLER_36_683
*5617 FILLER_36_690
*5618 FILLER_36_697
*5619 FILLER_36_704
*5620 FILLER_36_711
*5621 FILLER_36_718
*5622 FILLER_36_725
*5623 FILLER_36_732
*5624 FILLER_36_739
*5625 FILLER_36_74
*5626 FILLER_36_746
*5627 FILLER_36_753
*5628 FILLER_36_760
*5629 FILLER_36_767
*5630 FILLER_36_774
*5631 FILLER_36_781
*5632 FILLER_36_788
*5633 FILLER_36_795
*5634 FILLER_36_802
*5635 FILLER_36_809
*5636 FILLER_36_81
*5637 FILLER_36_816
*5638 FILLER_36_823
*5639 FILLER_36_830
*5640 FILLER_36_837
*5641 FILLER_36_844
*5642 FILLER_36_851
*5643 FILLER_36_858
*5644 FILLER_36_865
*5645 FILLER_36_872
*5646 FILLER_36_879
*5647 FILLER_36_88
*5648 FILLER_36_886
*5649 FILLER_36_893
*5650 FILLER_36_900
*5651 FILLER_36_907
*5652 FILLER_36_914
*5653 FILLER_36_921
*5654 FILLER_36_928
*5655 FILLER_36_935
*5656 FILLER_36_942
*5657 FILLER_36_949
*5658 FILLER_36_95
*5659 FILLER_36_956
*5660 FILLER_36_963
*5661 FILLER_36_970
*5662 FILLER_36_977
*5663 FILLER_36_984
*5664 FILLER_36_991
*5665 FILLER_36_998
*5666 FILLER_37_1005
*5667 FILLER_37_1012
*5668 FILLER_37_1019
*5669 FILLER_37_102
*5670 FILLER_37_1026
*5671 FILLER_37_1028
*5672 FILLER_37_109
*5673 FILLER_37_11
*5674 FILLER_37_116
*5675 FILLER_37_123
*5676 FILLER_37_130
*5677 FILLER_37_137
*5678 FILLER_37_144
*5679 FILLER_37_151
*5680 FILLER_37_158
*5681 FILLER_37_165
*5682 FILLER_37_172
*5683 FILLER_37_179
*5684 FILLER_37_18
*5685 FILLER_37_186
*5686 FILLER_37_193
*5687 FILLER_37_200
*5688 FILLER_37_207
*5689 FILLER_37_214
*5690 FILLER_37_221
*5691 FILLER_37_228
*5692 FILLER_37_235
*5693 FILLER_37_242
*5694 FILLER_37_249
*5695 FILLER_37_25
*5696 FILLER_37_256
*5697 FILLER_37_263
*5698 FILLER_37_270
*5699 FILLER_37_277
*5700 FILLER_37_284
*5701 FILLER_37_291
*5702 FILLER_37_298
*5703 FILLER_37_305
*5704 FILLER_37_312
*5705 FILLER_37_319
*5706 FILLER_37_32
*5707 FILLER_37_326
*5708 FILLER_37_333
*5709 FILLER_37_340
*5710 FILLER_37_347
*5711 FILLER_37_354
*5712 FILLER_37_361
*5713 FILLER_37_368
*5714 FILLER_37_375
*5715 FILLER_37_382
*5716 FILLER_37_389
*5717 FILLER_37_39
*5718 FILLER_37_396
*5719 FILLER_37_4
*5720 FILLER_37_403
*5721 FILLER_37_410
*5722 FILLER_37_417
*5723 FILLER_37_424
*5724 FILLER_37_431
*5725 FILLER_37_438
*5726 FILLER_37_445
*5727 FILLER_37_452
*5728 FILLER_37_459
*5729 FILLER_37_46
*5730 FILLER_37_466
*5731 FILLER_37_473
*5732 FILLER_37_480
*5733 FILLER_37_487
*5734 FILLER_37_494
*5735 FILLER_37_501
*5736 FILLER_37_508
*5737 FILLER_37_515
*5738 FILLER_37_522
*5739 FILLER_37_529
*5740 FILLER_37_53
*5741 FILLER_37_536
*5742 FILLER_37_543
*5743 FILLER_37_550
*5744 FILLER_37_557
*5745 FILLER_37_564
*5746 FILLER_37_571
*5747 FILLER_37_578
*5748 FILLER_37_585
*5749 FILLER_37_592
*5750 FILLER_37_599
*5751 FILLER_37_60
*5752 FILLER_37_606
*5753 FILLER_37_613
*5754 FILLER_37_620
*5755 FILLER_37_627
*5756 FILLER_37_634
*5757 FILLER_37_641
*5758 FILLER_37_648
*5759 FILLER_37_655
*5760 FILLER_37_662
*5761 FILLER_37_669
*5762 FILLER_37_67
*5763 FILLER_37_676
*5764 FILLER_37_683
*5765 FILLER_37_690
*5766 FILLER_37_697
*5767 FILLER_37_704
*5768 FILLER_37_711
*5769 FILLER_37_718
*5770 FILLER_37_725
*5771 FILLER_37_732
*5772 FILLER_37_739
*5773 FILLER_37_74
*5774 FILLER_37_746
*5775 FILLER_37_753
*5776 FILLER_37_760
*5777 FILLER_37_767
*5778 FILLER_37_774
*5779 FILLER_37_781
*5780 FILLER_37_788
*5781 FILLER_37_795
*5782 FILLER_37_802
*5783 FILLER_37_809
*5784 FILLER_37_81
*5785 FILLER_37_816
*5786 FILLER_37_823
*5787 FILLER_37_830
*5788 FILLER_37_837
*5789 FILLER_37_844
*5790 FILLER_37_851
*5791 FILLER_37_858
*5792 FILLER_37_865
*5793 FILLER_37_872
*5794 FILLER_37_879
*5795 FILLER_37_88
*5796 FILLER_37_886
*5797 FILLER_37_893
*5798 FILLER_37_900
*5799 FILLER_37_907
*5800 FILLER_37_914
*5801 FILLER_37_921
*5802 FILLER_37_928
*5803 FILLER_37_935
*5804 FILLER_37_942
*5805 FILLER_37_949
*5806 FILLER_37_95
*5807 FILLER_37_956
*5808 FILLER_37_963
*5809 FILLER_37_970
*5810 FILLER_37_977
*5811 FILLER_37_984
*5812 FILLER_37_991
*5813 FILLER_37_998
*5814 FILLER_38_1005
*5815 FILLER_38_1012
*5816 FILLER_38_1019
*5817 FILLER_38_102
*5818 FILLER_38_1026
*5819 FILLER_38_1028
*5820 FILLER_38_109
*5821 FILLER_38_11
*5822 FILLER_38_116
*5823 FILLER_38_123
*5824 FILLER_38_130
*5825 FILLER_38_137
*5826 FILLER_38_144
*5827 FILLER_38_151
*5828 FILLER_38_158
*5829 FILLER_38_165
*5830 FILLER_38_172
*5831 FILLER_38_179
*5832 FILLER_38_18
*5833 FILLER_38_186
*5834 FILLER_38_193
*5835 FILLER_38_200
*5836 FILLER_38_207
*5837 FILLER_38_214
*5838 FILLER_38_221
*5839 FILLER_38_228
*5840 FILLER_38_235
*5841 FILLER_38_242
*5842 FILLER_38_249
*5843 FILLER_38_25
*5844 FILLER_38_256
*5845 FILLER_38_263
*5846 FILLER_38_270
*5847 FILLER_38_277
*5848 FILLER_38_284
*5849 FILLER_38_291
*5850 FILLER_38_298
*5851 FILLER_38_305
*5852 FILLER_38_312
*5853 FILLER_38_319
*5854 FILLER_38_32
*5855 FILLER_38_326
*5856 FILLER_38_333
*5857 FILLER_38_340
*5858 FILLER_38_347
*5859 FILLER_38_354
*5860 FILLER_38_361
*5861 FILLER_38_368
*5862 FILLER_38_375
*5863 FILLER_38_382
*5864 FILLER_38_389
*5865 FILLER_38_39
*5866 FILLER_38_396
*5867 FILLER_38_4
*5868 FILLER_38_403
*5869 FILLER_38_410
*5870 FILLER_38_417
*5871 FILLER_38_424
*5872 FILLER_38_431
*5873 FILLER_38_438
*5874 FILLER_38_445
*5875 FILLER_38_452
*5876 FILLER_38_459
*5877 FILLER_38_46
*5878 FILLER_38_466
*5879 FILLER_38_473
*5880 FILLER_38_480
*5881 FILLER_38_487
*5882 FILLER_38_494
*5883 FILLER_38_501
*5884 FILLER_38_508
*5885 FILLER_38_515
*5886 FILLER_38_522
*5887 FILLER_38_529
*5888 FILLER_38_53
*5889 FILLER_38_536
*5890 FILLER_38_543
*5891 FILLER_38_550
*5892 FILLER_38_557
*5893 FILLER_38_564
*5894 FILLER_38_571
*5895 FILLER_38_578
*5896 FILLER_38_585
*5897 FILLER_38_592
*5898 FILLER_38_599
*5899 FILLER_38_60
*5900 FILLER_38_606
*5901 FILLER_38_613
*5902 FILLER_38_620
*5903 FILLER_38_627
*5904 FILLER_38_634
*5905 FILLER_38_641
*5906 FILLER_38_648
*5907 FILLER_38_655
*5908 FILLER_38_662
*5909 FILLER_38_669
*5910 FILLER_38_67
*5911 FILLER_38_676
*5912 FILLER_38_683
*5913 FILLER_38_690
*5914 FILLER_38_697
*5915 FILLER_38_704
*5916 FILLER_38_711
*5917 FILLER_38_718
*5918 FILLER_38_725
*5919 FILLER_38_732
*5920 FILLER_38_739
*5921 FILLER_38_74
*5922 FILLER_38_746
*5923 FILLER_38_753
*5924 FILLER_38_760
*5925 FILLER_38_767
*5926 FILLER_38_774
*5927 FILLER_38_781
*5928 FILLER_38_788
*5929 FILLER_38_795
*5930 FILLER_38_802
*5931 FILLER_38_809
*5932 FILLER_38_81
*5933 FILLER_38_816
*5934 FILLER_38_823
*5935 FILLER_38_830
*5936 FILLER_38_837
*5937 FILLER_38_844
*5938 FILLER_38_851
*5939 FILLER_38_858
*5940 FILLER_38_865
*5941 FILLER_38_872
*5942 FILLER_38_879
*5943 FILLER_38_88
*5944 FILLER_38_886
*5945 FILLER_38_893
*5946 FILLER_38_900
*5947 FILLER_38_907
*5948 FILLER_38_914
*5949 FILLER_38_921
*5950 FILLER_38_928
*5951 FILLER_38_935
*5952 FILLER_38_942
*5953 FILLER_38_949
*5954 FILLER_38_95
*5955 FILLER_38_956
*5956 FILLER_38_963
*5957 FILLER_38_970
*5958 FILLER_38_977
*5959 FILLER_38_984
*5960 FILLER_38_991
*5961 FILLER_38_998
*5962 FILLER_39_1005
*5963 FILLER_39_1012
*5964 FILLER_39_1019
*5965 FILLER_39_102
*5966 FILLER_39_1026
*5967 FILLER_39_1028
*5968 FILLER_39_109
*5969 FILLER_39_11
*5970 FILLER_39_116
*5971 FILLER_39_123
*5972 FILLER_39_130
*5973 FILLER_39_137
*5974 FILLER_39_144
*5975 FILLER_39_151
*5976 FILLER_39_158
*5977 FILLER_39_165
*5978 FILLER_39_172
*5979 FILLER_39_179
*5980 FILLER_39_18
*5981 FILLER_39_186
*5982 FILLER_39_193
*5983 FILLER_39_200
*5984 FILLER_39_207
*5985 FILLER_39_214
*5986 FILLER_39_221
*5987 FILLER_39_228
*5988 FILLER_39_235
*5989 FILLER_39_242
*5990 FILLER_39_249
*5991 FILLER_39_25
*5992 FILLER_39_256
*5993 FILLER_39_263
*5994 FILLER_39_270
*5995 FILLER_39_277
*5996 FILLER_39_284
*5997 FILLER_39_291
*5998 FILLER_39_298
*5999 FILLER_39_305
*6000 FILLER_39_312
*6001 FILLER_39_319
*6002 FILLER_39_32
*6003 FILLER_39_326
*6004 FILLER_39_333
*6005 FILLER_39_340
*6006 FILLER_39_347
*6007 FILLER_39_354
*6008 FILLER_39_361
*6009 FILLER_39_368
*6010 FILLER_39_375
*6011 FILLER_39_382
*6012 FILLER_39_389
*6013 FILLER_39_39
*6014 FILLER_39_396
*6015 FILLER_39_4
*6016 FILLER_39_403
*6017 FILLER_39_410
*6018 FILLER_39_417
*6019 FILLER_39_424
*6020 FILLER_39_431
*6021 FILLER_39_438
*6022 FILLER_39_445
*6023 FILLER_39_452
*6024 FILLER_39_459
*6025 FILLER_39_46
*6026 FILLER_39_466
*6027 FILLER_39_473
*6028 FILLER_39_480
*6029 FILLER_39_487
*6030 FILLER_39_494
*6031 FILLER_39_501
*6032 FILLER_39_508
*6033 FILLER_39_515
*6034 FILLER_39_522
*6035 FILLER_39_529
*6036 FILLER_39_53
*6037 FILLER_39_536
*6038 FILLER_39_543
*6039 FILLER_39_550
*6040 FILLER_39_557
*6041 FILLER_39_564
*6042 FILLER_39_571
*6043 FILLER_39_578
*6044 FILLER_39_585
*6045 FILLER_39_592
*6046 FILLER_39_599
*6047 FILLER_39_60
*6048 FILLER_39_606
*6049 FILLER_39_613
*6050 FILLER_39_620
*6051 FILLER_39_627
*6052 FILLER_39_634
*6053 FILLER_39_641
*6054 FILLER_39_648
*6055 FILLER_39_655
*6056 FILLER_39_662
*6057 FILLER_39_669
*6058 FILLER_39_67
*6059 FILLER_39_676
*6060 FILLER_39_683
*6061 FILLER_39_690
*6062 FILLER_39_697
*6063 FILLER_39_704
*6064 FILLER_39_711
*6065 FILLER_39_718
*6066 FILLER_39_725
*6067 FILLER_39_732
*6068 FILLER_39_739
*6069 FILLER_39_74
*6070 FILLER_39_746
*6071 FILLER_39_753
*6072 FILLER_39_760
*6073 FILLER_39_767
*6074 FILLER_39_774
*6075 FILLER_39_781
*6076 FILLER_39_788
*6077 FILLER_39_795
*6078 FILLER_39_802
*6079 FILLER_39_809
*6080 FILLER_39_81
*6081 FILLER_39_816
*6082 FILLER_39_823
*6083 FILLER_39_830
*6084 FILLER_39_837
*6085 FILLER_39_844
*6086 FILLER_39_851
*6087 FILLER_39_858
*6088 FILLER_39_865
*6089 FILLER_39_872
*6090 FILLER_39_879
*6091 FILLER_39_88
*6092 FILLER_39_886
*6093 FILLER_39_893
*6094 FILLER_39_900
*6095 FILLER_39_907
*6096 FILLER_39_914
*6097 FILLER_39_921
*6098 FILLER_39_928
*6099 FILLER_39_935
*6100 FILLER_39_942
*6101 FILLER_39_949
*6102 FILLER_39_95
*6103 FILLER_39_956
*6104 FILLER_39_963
*6105 FILLER_39_970
*6106 FILLER_39_977
*6107 FILLER_39_984
*6108 FILLER_39_991
*6109 FILLER_39_998
*6110 FILLER_3_0
*6111 FILLER_3_1001
*6112 FILLER_3_1008
*6113 FILLER_3_1015
*6114 FILLER_3_1022
*6115 FILLER_3_105
*6116 FILLER_3_112
*6117 FILLER_3_119
*6118 FILLER_3_126
*6119 FILLER_3_133
*6120 FILLER_3_14
*6121 FILLER_3_140
*6122 FILLER_3_147
*6123 FILLER_3_154
*6124 FILLER_3_161
*6125 FILLER_3_168
*6126 FILLER_3_175
*6127 FILLER_3_182
*6128 FILLER_3_189
*6129 FILLER_3_196
*6130 FILLER_3_203
*6131 FILLER_3_21
*6132 FILLER_3_210
*6133 FILLER_3_217
*6134 FILLER_3_224
*6135 FILLER_3_231
*6136 FILLER_3_238
*6137 FILLER_3_245
*6138 FILLER_3_252
*6139 FILLER_3_259
*6140 FILLER_3_266
*6141 FILLER_3_273
*6142 FILLER_3_28
*6143 FILLER_3_280
*6144 FILLER_3_287
*6145 FILLER_3_294
*6146 FILLER_3_301
*6147 FILLER_3_308
*6148 FILLER_3_315
*6149 FILLER_3_322
*6150 FILLER_3_329
*6151 FILLER_3_336
*6152 FILLER_3_343
*6153 FILLER_3_35
*6154 FILLER_3_350
*6155 FILLER_3_357
*6156 FILLER_3_364
*6157 FILLER_3_371
*6158 FILLER_3_378
*6159 FILLER_3_385
*6160 FILLER_3_392
*6161 FILLER_3_399
*6162 FILLER_3_406
*6163 FILLER_3_413
*6164 FILLER_3_42
*6165 FILLER_3_420
*6166 FILLER_3_427
*6167 FILLER_3_434
*6168 FILLER_3_441
*6169 FILLER_3_448
*6170 FILLER_3_455
*6171 FILLER_3_462
*6172 FILLER_3_469
*6173 FILLER_3_476
*6174 FILLER_3_483
*6175 FILLER_3_49
*6176 FILLER_3_490
*6177 FILLER_3_497
*6178 FILLER_3_504
*6179 FILLER_3_511
*6180 FILLER_3_518
*6181 FILLER_3_525
*6182 FILLER_3_532
*6183 FILLER_3_539
*6184 FILLER_3_546
*6185 FILLER_3_553
*6186 FILLER_3_56
*6187 FILLER_3_560
*6188 FILLER_3_567
*6189 FILLER_3_574
*6190 FILLER_3_581
*6191 FILLER_3_588
*6192 FILLER_3_595
*6193 FILLER_3_602
*6194 FILLER_3_609
*6195 FILLER_3_616
*6196 FILLER_3_623
*6197 FILLER_3_63
*6198 FILLER_3_630
*6199 FILLER_3_637
*6200 FILLER_3_644
*6201 FILLER_3_651
*6202 FILLER_3_658
*6203 FILLER_3_665
*6204 FILLER_3_672
*6205 FILLER_3_679
*6206 FILLER_3_686
*6207 FILLER_3_693
*6208 FILLER_3_7
*6209 FILLER_3_70
*6210 FILLER_3_700
*6211 FILLER_3_707
*6212 FILLER_3_714
*6213 FILLER_3_721
*6214 FILLER_3_728
*6215 FILLER_3_735
*6216 FILLER_3_742
*6217 FILLER_3_749
*6218 FILLER_3_756
*6219 FILLER_3_763
*6220 FILLER_3_77
*6221 FILLER_3_770
*6222 FILLER_3_777
*6223 FILLER_3_784
*6224 FILLER_3_791
*6225 FILLER_3_798
*6226 FILLER_3_805
*6227 FILLER_3_812
*6228 FILLER_3_819
*6229 FILLER_3_826
*6230 FILLER_3_833
*6231 FILLER_3_84
*6232 FILLER_3_840
*6233 FILLER_3_847
*6234 FILLER_3_854
*6235 FILLER_3_861
*6236 FILLER_3_868
*6237 FILLER_3_875
*6238 FILLER_3_882
*6239 FILLER_3_889
*6240 FILLER_3_896
*6241 FILLER_3_903
*6242 FILLER_3_91
*6243 FILLER_3_910
*6244 FILLER_3_917
*6245 FILLER_3_924
*6246 FILLER_3_931
*6247 FILLER_3_938
*6248 FILLER_3_945
*6249 FILLER_3_952
*6250 FILLER_3_959
*6251 FILLER_3_966
*6252 FILLER_3_973
*6253 FILLER_3_98
*6254 FILLER_3_980
*6255 FILLER_3_987
*6256 FILLER_3_994
*6257 FILLER_40_1005
*6258 FILLER_40_1012
*6259 FILLER_40_1019
*6260 FILLER_40_102
*6261 FILLER_40_1026
*6262 FILLER_40_1028
*6263 FILLER_40_109
*6264 FILLER_40_11
*6265 FILLER_40_116
*6266 FILLER_40_123
*6267 FILLER_40_130
*6268 FILLER_40_137
*6269 FILLER_40_144
*6270 FILLER_40_151
*6271 FILLER_40_158
*6272 FILLER_40_165
*6273 FILLER_40_172
*6274 FILLER_40_179
*6275 FILLER_40_18
*6276 FILLER_40_186
*6277 FILLER_40_193
*6278 FILLER_40_200
*6279 FILLER_40_207
*6280 FILLER_40_214
*6281 FILLER_40_221
*6282 FILLER_40_228
*6283 FILLER_40_235
*6284 FILLER_40_242
*6285 FILLER_40_249
*6286 FILLER_40_25
*6287 FILLER_40_256
*6288 FILLER_40_263
*6289 FILLER_40_270
*6290 FILLER_40_277
*6291 FILLER_40_284
*6292 FILLER_40_291
*6293 FILLER_40_298
*6294 FILLER_40_305
*6295 FILLER_40_312
*6296 FILLER_40_319
*6297 FILLER_40_32
*6298 FILLER_40_326
*6299 FILLER_40_333
*6300 FILLER_40_340
*6301 FILLER_40_347
*6302 FILLER_40_354
*6303 FILLER_40_361
*6304 FILLER_40_368
*6305 FILLER_40_375
*6306 FILLER_40_382
*6307 FILLER_40_389
*6308 FILLER_40_39
*6309 FILLER_40_396
*6310 FILLER_40_4
*6311 FILLER_40_403
*6312 FILLER_40_410
*6313 FILLER_40_417
*6314 FILLER_40_424
*6315 FILLER_40_431
*6316 FILLER_40_438
*6317 FILLER_40_445
*6318 FILLER_40_452
*6319 FILLER_40_459
*6320 FILLER_40_46
*6321 FILLER_40_466
*6322 FILLER_40_473
*6323 FILLER_40_480
*6324 FILLER_40_487
*6325 FILLER_40_494
*6326 FILLER_40_501
*6327 FILLER_40_508
*6328 FILLER_40_515
*6329 FILLER_40_522
*6330 FILLER_40_529
*6331 FILLER_40_53
*6332 FILLER_40_536
*6333 FILLER_40_543
*6334 FILLER_40_550
*6335 FILLER_40_557
*6336 FILLER_40_564
*6337 FILLER_40_571
*6338 FILLER_40_578
*6339 FILLER_40_585
*6340 FILLER_40_592
*6341 FILLER_40_599
*6342 FILLER_40_60
*6343 FILLER_40_606
*6344 FILLER_40_613
*6345 FILLER_40_620
*6346 FILLER_40_627
*6347 FILLER_40_634
*6348 FILLER_40_641
*6349 FILLER_40_648
*6350 FILLER_40_655
*6351 FILLER_40_662
*6352 FILLER_40_669
*6353 FILLER_40_67
*6354 FILLER_40_676
*6355 FILLER_40_683
*6356 FILLER_40_690
*6357 FILLER_40_697
*6358 FILLER_40_704
*6359 FILLER_40_711
*6360 FILLER_40_718
*6361 FILLER_40_725
*6362 FILLER_40_732
*6363 FILLER_40_739
*6364 FILLER_40_74
*6365 FILLER_40_746
*6366 FILLER_40_753
*6367 FILLER_40_760
*6368 FILLER_40_767
*6369 FILLER_40_774
*6370 FILLER_40_781
*6371 FILLER_40_788
*6372 FILLER_40_795
*6373 FILLER_40_802
*6374 FILLER_40_809
*6375 FILLER_40_81
*6376 FILLER_40_816
*6377 FILLER_40_823
*6378 FILLER_40_830
*6379 FILLER_40_837
*6380 FILLER_40_844
*6381 FILLER_40_851
*6382 FILLER_40_858
*6383 FILLER_40_865
*6384 FILLER_40_872
*6385 FILLER_40_879
*6386 FILLER_40_88
*6387 FILLER_40_886
*6388 FILLER_40_893
*6389 FILLER_40_900
*6390 FILLER_40_907
*6391 FILLER_40_914
*6392 FILLER_40_921
*6393 FILLER_40_928
*6394 FILLER_40_935
*6395 FILLER_40_942
*6396 FILLER_40_949
*6397 FILLER_40_95
*6398 FILLER_40_956
*6399 FILLER_40_963
*6400 FILLER_40_970
*6401 FILLER_40_977
*6402 FILLER_40_984
*6403 FILLER_40_991
*6404 FILLER_40_998
*6405 FILLER_41_0
*6406 FILLER_41_1001
*6407 FILLER_41_1008
*6408 FILLER_41_1015
*6409 FILLER_41_1022
*6410 FILLER_41_105
*6411 FILLER_41_112
*6412 FILLER_41_119
*6413 FILLER_41_126
*6414 FILLER_41_133
*6415 FILLER_41_14
*6416 FILLER_41_140
*6417 FILLER_41_147
*6418 FILLER_41_154
*6419 FILLER_41_161
*6420 FILLER_41_168
*6421 FILLER_41_175
*6422 FILLER_41_182
*6423 FILLER_41_189
*6424 FILLER_41_196
*6425 FILLER_41_203
*6426 FILLER_41_21
*6427 FILLER_41_210
*6428 FILLER_41_217
*6429 FILLER_41_224
*6430 FILLER_41_231
*6431 FILLER_41_238
*6432 FILLER_41_245
*6433 FILLER_41_252
*6434 FILLER_41_259
*6435 FILLER_41_266
*6436 FILLER_41_273
*6437 FILLER_41_28
*6438 FILLER_41_280
*6439 FILLER_41_287
*6440 FILLER_41_294
*6441 FILLER_41_301
*6442 FILLER_41_308
*6443 FILLER_41_315
*6444 FILLER_41_322
*6445 FILLER_41_329
*6446 FILLER_41_336
*6447 FILLER_41_343
*6448 FILLER_41_35
*6449 FILLER_41_350
*6450 FILLER_41_357
*6451 FILLER_41_364
*6452 FILLER_41_371
*6453 FILLER_41_378
*6454 FILLER_41_385
*6455 FILLER_41_392
*6456 FILLER_41_399
*6457 FILLER_41_406
*6458 FILLER_41_413
*6459 FILLER_41_42
*6460 FILLER_41_420
*6461 FILLER_41_427
*6462 FILLER_41_434
*6463 FILLER_41_441
*6464 FILLER_41_448
*6465 FILLER_41_455
*6466 FILLER_41_462
*6467 FILLER_41_469
*6468 FILLER_41_476
*6469 FILLER_41_483
*6470 FILLER_41_49
*6471 FILLER_41_490
*6472 FILLER_41_497
*6473 FILLER_41_504
*6474 FILLER_41_511
*6475 FILLER_41_518
*6476 FILLER_41_525
*6477 FILLER_41_532
*6478 FILLER_41_539
*6479 FILLER_41_546
*6480 FILLER_41_553
*6481 FILLER_41_56
*6482 FILLER_41_560
*6483 FILLER_41_567
*6484 FILLER_41_574
*6485 FILLER_41_581
*6486 FILLER_41_588
*6487 FILLER_41_595
*6488 FILLER_41_602
*6489 FILLER_41_609
*6490 FILLER_41_616
*6491 FILLER_41_623
*6492 FILLER_41_63
*6493 FILLER_41_630
*6494 FILLER_41_637
*6495 FILLER_41_644
*6496 FILLER_41_651
*6497 FILLER_41_658
*6498 FILLER_41_665
*6499 FILLER_41_672
*6500 FILLER_41_679
*6501 FILLER_41_686
*6502 FILLER_41_693
*6503 FILLER_41_7
*6504 FILLER_41_70
*6505 FILLER_41_700
*6506 FILLER_41_707
*6507 FILLER_41_714
*6508 FILLER_41_721
*6509 FILLER_41_728
*6510 FILLER_41_735
*6511 FILLER_41_742
*6512 FILLER_41_749
*6513 FILLER_41_756
*6514 FILLER_41_763
*6515 FILLER_41_77
*6516 FILLER_41_770
*6517 FILLER_41_777
*6518 FILLER_41_784
*6519 FILLER_41_791
*6520 FILLER_41_798
*6521 FILLER_41_805
*6522 FILLER_41_812
*6523 FILLER_41_819
*6524 FILLER_41_826
*6525 FILLER_41_833
*6526 FILLER_41_84
*6527 FILLER_41_840
*6528 FILLER_41_847
*6529 FILLER_41_854
*6530 FILLER_41_861
*6531 FILLER_41_868
*6532 FILLER_41_875
*6533 FILLER_41_882
*6534 FILLER_41_889
*6535 FILLER_41_896
*6536 FILLER_41_903
*6537 FILLER_41_91
*6538 FILLER_41_910
*6539 FILLER_41_917
*6540 FILLER_41_924
*6541 FILLER_41_931
*6542 FILLER_41_938
*6543 FILLER_41_945
*6544 FILLER_41_952
*6545 FILLER_41_959
*6546 FILLER_41_966
*6547 FILLER_41_973
*6548 FILLER_41_98
*6549 FILLER_41_980
*6550 FILLER_41_987
*6551 FILLER_41_994
*6552 FILLER_42_1005
*6553 FILLER_42_1012
*6554 FILLER_42_1019
*6555 FILLER_42_102
*6556 FILLER_42_1026
*6557 FILLER_42_1028
*6558 FILLER_42_109
*6559 FILLER_42_11
*6560 FILLER_42_116
*6561 FILLER_42_123
*6562 FILLER_42_130
*6563 FILLER_42_137
*6564 FILLER_42_144
*6565 FILLER_42_151
*6566 FILLER_42_158
*6567 FILLER_42_165
*6568 FILLER_42_172
*6569 FILLER_42_179
*6570 FILLER_42_18
*6571 FILLER_42_186
*6572 FILLER_42_193
*6573 FILLER_42_200
*6574 FILLER_42_207
*6575 FILLER_42_214
*6576 FILLER_42_221
*6577 FILLER_42_228
*6578 FILLER_42_235
*6579 FILLER_42_242
*6580 FILLER_42_249
*6581 FILLER_42_25
*6582 FILLER_42_256
*6583 FILLER_42_263
*6584 FILLER_42_270
*6585 FILLER_42_277
*6586 FILLER_42_284
*6587 FILLER_42_291
*6588 FILLER_42_298
*6589 FILLER_42_305
*6590 FILLER_42_312
*6591 FILLER_42_319
*6592 FILLER_42_32
*6593 FILLER_42_326
*6594 FILLER_42_333
*6595 FILLER_42_340
*6596 FILLER_42_347
*6597 FILLER_42_354
*6598 FILLER_42_361
*6599 FILLER_42_368
*6600 FILLER_42_375
*6601 FILLER_42_382
*6602 FILLER_42_389
*6603 FILLER_42_39
*6604 FILLER_42_396
*6605 FILLER_42_4
*6606 FILLER_42_403
*6607 FILLER_42_410
*6608 FILLER_42_417
*6609 FILLER_42_424
*6610 FILLER_42_431
*6611 FILLER_42_438
*6612 FILLER_42_445
*6613 FILLER_42_452
*6614 FILLER_42_459
*6615 FILLER_42_46
*6616 FILLER_42_466
*6617 FILLER_42_473
*6618 FILLER_42_480
*6619 FILLER_42_487
*6620 FILLER_42_494
*6621 FILLER_42_501
*6622 FILLER_42_508
*6623 FILLER_42_515
*6624 FILLER_42_522
*6625 FILLER_42_529
*6626 FILLER_42_53
*6627 FILLER_42_536
*6628 FILLER_42_543
*6629 FILLER_42_550
*6630 FILLER_42_557
*6631 FILLER_42_564
*6632 FILLER_42_571
*6633 FILLER_42_578
*6634 FILLER_42_585
*6635 FILLER_42_592
*6636 FILLER_42_599
*6637 FILLER_42_60
*6638 FILLER_42_606
*6639 FILLER_42_613
*6640 FILLER_42_620
*6641 FILLER_42_627
*6642 FILLER_42_634
*6643 FILLER_42_641
*6644 FILLER_42_648
*6645 FILLER_42_655
*6646 FILLER_42_662
*6647 FILLER_42_669
*6648 FILLER_42_67
*6649 FILLER_42_676
*6650 FILLER_42_683
*6651 FILLER_42_690
*6652 FILLER_42_697
*6653 FILLER_42_704
*6654 FILLER_42_711
*6655 FILLER_42_718
*6656 FILLER_42_725
*6657 FILLER_42_732
*6658 FILLER_42_739
*6659 FILLER_42_74
*6660 FILLER_42_746
*6661 FILLER_42_753
*6662 FILLER_42_760
*6663 FILLER_42_767
*6664 FILLER_42_774
*6665 FILLER_42_781
*6666 FILLER_42_788
*6667 FILLER_42_795
*6668 FILLER_42_802
*6669 FILLER_42_809
*6670 FILLER_42_81
*6671 FILLER_42_816
*6672 FILLER_42_823
*6673 FILLER_42_830
*6674 FILLER_42_837
*6675 FILLER_42_844
*6676 FILLER_42_851
*6677 FILLER_42_858
*6678 FILLER_42_865
*6679 FILLER_42_872
*6680 FILLER_42_879
*6681 FILLER_42_88
*6682 FILLER_42_886
*6683 FILLER_42_893
*6684 FILLER_42_900
*6685 FILLER_42_907
*6686 FILLER_42_914
*6687 FILLER_42_921
*6688 FILLER_42_928
*6689 FILLER_42_935
*6690 FILLER_42_942
*6691 FILLER_42_949
*6692 FILLER_42_95
*6693 FILLER_42_956
*6694 FILLER_42_963
*6695 FILLER_42_970
*6696 FILLER_42_977
*6697 FILLER_42_984
*6698 FILLER_42_991
*6699 FILLER_42_998
*6700 FILLER_43_1005
*6701 FILLER_43_1012
*6702 FILLER_43_1019
*6703 FILLER_43_102
*6704 FILLER_43_1026
*6705 FILLER_43_1028
*6706 FILLER_43_109
*6707 FILLER_43_11
*6708 FILLER_43_116
*6709 FILLER_43_123
*6710 FILLER_43_130
*6711 FILLER_43_137
*6712 FILLER_43_144
*6713 FILLER_43_151
*6714 FILLER_43_158
*6715 FILLER_43_165
*6716 FILLER_43_172
*6717 FILLER_43_179
*6718 FILLER_43_18
*6719 FILLER_43_186
*6720 FILLER_43_193
*6721 FILLER_43_200
*6722 FILLER_43_207
*6723 FILLER_43_214
*6724 FILLER_43_221
*6725 FILLER_43_228
*6726 FILLER_43_235
*6727 FILLER_43_242
*6728 FILLER_43_249
*6729 FILLER_43_25
*6730 FILLER_43_256
*6731 FILLER_43_263
*6732 FILLER_43_270
*6733 FILLER_43_277
*6734 FILLER_43_284
*6735 FILLER_43_291
*6736 FILLER_43_298
*6737 FILLER_43_305
*6738 FILLER_43_312
*6739 FILLER_43_319
*6740 FILLER_43_32
*6741 FILLER_43_326
*6742 FILLER_43_333
*6743 FILLER_43_340
*6744 FILLER_43_347
*6745 FILLER_43_354
*6746 FILLER_43_361
*6747 FILLER_43_368
*6748 FILLER_43_375
*6749 FILLER_43_382
*6750 FILLER_43_389
*6751 FILLER_43_39
*6752 FILLER_43_396
*6753 FILLER_43_4
*6754 FILLER_43_403
*6755 FILLER_43_410
*6756 FILLER_43_417
*6757 FILLER_43_424
*6758 FILLER_43_431
*6759 FILLER_43_438
*6760 FILLER_43_445
*6761 FILLER_43_452
*6762 FILLER_43_459
*6763 FILLER_43_46
*6764 FILLER_43_466
*6765 FILLER_43_473
*6766 FILLER_43_480
*6767 FILLER_43_487
*6768 FILLER_43_494
*6769 FILLER_43_501
*6770 FILLER_43_508
*6771 FILLER_43_515
*6772 FILLER_43_522
*6773 FILLER_43_529
*6774 FILLER_43_53
*6775 FILLER_43_536
*6776 FILLER_43_543
*6777 FILLER_43_550
*6778 FILLER_43_557
*6779 FILLER_43_564
*6780 FILLER_43_571
*6781 FILLER_43_578
*6782 FILLER_43_585
*6783 FILLER_43_592
*6784 FILLER_43_599
*6785 FILLER_43_60
*6786 FILLER_43_606
*6787 FILLER_43_613
*6788 FILLER_43_620
*6789 FILLER_43_627
*6790 FILLER_43_634
*6791 FILLER_43_641
*6792 FILLER_43_648
*6793 FILLER_43_655
*6794 FILLER_43_662
*6795 FILLER_43_669
*6796 FILLER_43_67
*6797 FILLER_43_676
*6798 FILLER_43_683
*6799 FILLER_43_690
*6800 FILLER_43_697
*6801 FILLER_43_704
*6802 FILLER_43_711
*6803 FILLER_43_718
*6804 FILLER_43_725
*6805 FILLER_43_732
*6806 FILLER_43_739
*6807 FILLER_43_74
*6808 FILLER_43_746
*6809 FILLER_43_753
*6810 FILLER_43_760
*6811 FILLER_43_767
*6812 FILLER_43_774
*6813 FILLER_43_781
*6814 FILLER_43_788
*6815 FILLER_43_795
*6816 FILLER_43_802
*6817 FILLER_43_809
*6818 FILLER_43_81
*6819 FILLER_43_816
*6820 FILLER_43_823
*6821 FILLER_43_830
*6822 FILLER_43_837
*6823 FILLER_43_844
*6824 FILLER_43_851
*6825 FILLER_43_858
*6826 FILLER_43_865
*6827 FILLER_43_872
*6828 FILLER_43_879
*6829 FILLER_43_88
*6830 FILLER_43_886
*6831 FILLER_43_893
*6832 FILLER_43_900
*6833 FILLER_43_907
*6834 FILLER_43_914
*6835 FILLER_43_921
*6836 FILLER_43_928
*6837 FILLER_43_935
*6838 FILLER_43_942
*6839 FILLER_43_949
*6840 FILLER_43_95
*6841 FILLER_43_956
*6842 FILLER_43_963
*6843 FILLER_43_970
*6844 FILLER_43_977
*6845 FILLER_43_984
*6846 FILLER_43_991
*6847 FILLER_43_998
*6848 FILLER_44_1005
*6849 FILLER_44_1012
*6850 FILLER_44_1019
*6851 FILLER_44_102
*6852 FILLER_44_1026
*6853 FILLER_44_1028
*6854 FILLER_44_109
*6855 FILLER_44_11
*6856 FILLER_44_116
*6857 FILLER_44_123
*6858 FILLER_44_130
*6859 FILLER_44_137
*6860 FILLER_44_144
*6861 FILLER_44_151
*6862 FILLER_44_158
*6863 FILLER_44_165
*6864 FILLER_44_172
*6865 FILLER_44_179
*6866 FILLER_44_18
*6867 FILLER_44_186
*6868 FILLER_44_193
*6869 FILLER_44_200
*6870 FILLER_44_207
*6871 FILLER_44_214
*6872 FILLER_44_221
*6873 FILLER_44_228
*6874 FILLER_44_235
*6875 FILLER_44_242
*6876 FILLER_44_249
*6877 FILLER_44_25
*6878 FILLER_44_256
*6879 FILLER_44_263
*6880 FILLER_44_270
*6881 FILLER_44_277
*6882 FILLER_44_284
*6883 FILLER_44_291
*6884 FILLER_44_298
*6885 FILLER_44_305
*6886 FILLER_44_312
*6887 FILLER_44_319
*6888 FILLER_44_32
*6889 FILLER_44_326
*6890 FILLER_44_333
*6891 FILLER_44_340
*6892 FILLER_44_347
*6893 FILLER_44_354
*6894 FILLER_44_361
*6895 FILLER_44_368
*6896 FILLER_44_375
*6897 FILLER_44_382
*6898 FILLER_44_389
*6899 FILLER_44_39
*6900 FILLER_44_396
*6901 FILLER_44_4
*6902 FILLER_44_403
*6903 FILLER_44_410
*6904 FILLER_44_417
*6905 FILLER_44_424
*6906 FILLER_44_431
*6907 FILLER_44_438
*6908 FILLER_44_445
*6909 FILLER_44_452
*6910 FILLER_44_459
*6911 FILLER_44_46
*6912 FILLER_44_466
*6913 FILLER_44_473
*6914 FILLER_44_480
*6915 FILLER_44_487
*6916 FILLER_44_494
*6917 FILLER_44_501
*6918 FILLER_44_508
*6919 FILLER_44_515
*6920 FILLER_44_522
*6921 FILLER_44_529
*6922 FILLER_44_53
*6923 FILLER_44_536
*6924 FILLER_44_543
*6925 FILLER_44_550
*6926 FILLER_44_557
*6927 FILLER_44_564
*6928 FILLER_44_571
*6929 FILLER_44_578
*6930 FILLER_44_585
*6931 FILLER_44_592
*6932 FILLER_44_599
*6933 FILLER_44_60
*6934 FILLER_44_606
*6935 FILLER_44_613
*6936 FILLER_44_620
*6937 FILLER_44_627
*6938 FILLER_44_634
*6939 FILLER_44_641
*6940 FILLER_44_648
*6941 FILLER_44_655
*6942 FILLER_44_662
*6943 FILLER_44_669
*6944 FILLER_44_67
*6945 FILLER_44_676
*6946 FILLER_44_683
*6947 FILLER_44_690
*6948 FILLER_44_697
*6949 FILLER_44_704
*6950 FILLER_44_711
*6951 FILLER_44_718
*6952 FILLER_44_725
*6953 FILLER_44_732
*6954 FILLER_44_739
*6955 FILLER_44_74
*6956 FILLER_44_746
*6957 FILLER_44_753
*6958 FILLER_44_760
*6959 FILLER_44_767
*6960 FILLER_44_774
*6961 FILLER_44_781
*6962 FILLER_44_788
*6963 FILLER_44_795
*6964 FILLER_44_802
*6965 FILLER_44_809
*6966 FILLER_44_81
*6967 FILLER_44_816
*6968 FILLER_44_823
*6969 FILLER_44_830
*6970 FILLER_44_837
*6971 FILLER_44_844
*6972 FILLER_44_851
*6973 FILLER_44_858
*6974 FILLER_44_865
*6975 FILLER_44_872
*6976 FILLER_44_879
*6977 FILLER_44_88
*6978 FILLER_44_886
*6979 FILLER_44_893
*6980 FILLER_44_900
*6981 FILLER_44_907
*6982 FILLER_44_914
*6983 FILLER_44_921
*6984 FILLER_44_928
*6985 FILLER_44_935
*6986 FILLER_44_942
*6987 FILLER_44_949
*6988 FILLER_44_95
*6989 FILLER_44_956
*6990 FILLER_44_963
*6991 FILLER_44_970
*6992 FILLER_44_977
*6993 FILLER_44_984
*6994 FILLER_44_991
*6995 FILLER_44_998
*6996 FILLER_45_1000
*6997 FILLER_45_1007
*6998 FILLER_45_1014
*6999 FILLER_45_1021
*7000 FILLER_45_1028
*7001 FILLER_45_104
*7002 FILLER_45_11
*7003 FILLER_45_111
*7004 FILLER_45_118
*7005 FILLER_45_125
*7006 FILLER_45_132
*7007 FILLER_45_139
*7008 FILLER_45_146
*7009 FILLER_45_153
*7010 FILLER_45_160
*7011 FILLER_45_167
*7012 FILLER_45_174
*7013 FILLER_45_18
*7014 FILLER_45_181
*7015 FILLER_45_188
*7016 FILLER_45_195
*7017 FILLER_45_202
*7018 FILLER_45_209
*7019 FILLER_45_216
*7020 FILLER_45_223
*7021 FILLER_45_230
*7022 FILLER_45_237
*7023 FILLER_45_244
*7024 FILLER_45_251
*7025 FILLER_45_258
*7026 FILLER_45_265
*7027 FILLER_45_27
*7028 FILLER_45_272
*7029 FILLER_45_279
*7030 FILLER_45_286
*7031 FILLER_45_293
*7032 FILLER_45_300
*7033 FILLER_45_307
*7034 FILLER_45_314
*7035 FILLER_45_321
*7036 FILLER_45_328
*7037 FILLER_45_335
*7038 FILLER_45_34
*7039 FILLER_45_342
*7040 FILLER_45_349
*7041 FILLER_45_356
*7042 FILLER_45_363
*7043 FILLER_45_370
*7044 FILLER_45_377
*7045 FILLER_45_384
*7046 FILLER_45_391
*7047 FILLER_45_398
*7048 FILLER_45_4
*7049 FILLER_45_405
*7050 FILLER_45_41
*7051 FILLER_45_412
*7052 FILLER_45_419
*7053 FILLER_45_426
*7054 FILLER_45_433
*7055 FILLER_45_440
*7056 FILLER_45_447
*7057 FILLER_45_454
*7058 FILLER_45_461
*7059 FILLER_45_468
*7060 FILLER_45_475
*7061 FILLER_45_48
*7062 FILLER_45_482
*7063 FILLER_45_489
*7064 FILLER_45_496
*7065 FILLER_45_503
*7066 FILLER_45_510
*7067 FILLER_45_517
*7068 FILLER_45_524
*7069 FILLER_45_531
*7070 FILLER_45_538
*7071 FILLER_45_545
*7072 FILLER_45_55
*7073 FILLER_45_552
*7074 FILLER_45_559
*7075 FILLER_45_566
*7076 FILLER_45_573
*7077 FILLER_45_580
*7078 FILLER_45_587
*7079 FILLER_45_594
*7080 FILLER_45_601
*7081 FILLER_45_608
*7082 FILLER_45_615
*7083 FILLER_45_62
*7084 FILLER_45_622
*7085 FILLER_45_629
*7086 FILLER_45_636
*7087 FILLER_45_643
*7088 FILLER_45_650
*7089 FILLER_45_657
*7090 FILLER_45_664
*7091 FILLER_45_671
*7092 FILLER_45_678
*7093 FILLER_45_685
*7094 FILLER_45_69
*7095 FILLER_45_692
*7096 FILLER_45_699
*7097 FILLER_45_706
*7098 FILLER_45_713
*7099 FILLER_45_720
*7100 FILLER_45_727
*7101 FILLER_45_734
*7102 FILLER_45_741
*7103 FILLER_45_748
*7104 FILLER_45_755
*7105 FILLER_45_76
*7106 FILLER_45_762
*7107 FILLER_45_769
*7108 FILLER_45_776
*7109 FILLER_45_783
*7110 FILLER_45_790
*7111 FILLER_45_797
*7112 FILLER_45_804
*7113 FILLER_45_811
*7114 FILLER_45_818
*7115 FILLER_45_825
*7116 FILLER_45_83
*7117 FILLER_45_832
*7118 FILLER_45_839
*7119 FILLER_45_846
*7120 FILLER_45_853
*7121 FILLER_45_860
*7122 FILLER_45_867
*7123 FILLER_45_874
*7124 FILLER_45_881
*7125 FILLER_45_888
*7126 FILLER_45_895
*7127 FILLER_45_90
*7128 FILLER_45_902
*7129 FILLER_45_909
*7130 FILLER_45_916
*7131 FILLER_45_923
*7132 FILLER_45_930
*7133 FILLER_45_937
*7134 FILLER_45_944
*7135 FILLER_45_951
*7136 FILLER_45_958
*7137 FILLER_45_965
*7138 FILLER_45_97
*7139 FILLER_45_972
*7140 FILLER_45_979
*7141 FILLER_45_986
*7142 FILLER_45_993
*7143 FILLER_46_1004
*7144 FILLER_46_101
*7145 FILLER_46_1011
*7146 FILLER_46_1018
*7147 FILLER_46_1025
*7148 FILLER_46_108
*7149 FILLER_46_11
*7150 FILLER_46_115
*7151 FILLER_46_122
*7152 FILLER_46_129
*7153 FILLER_46_136
*7154 FILLER_46_143
*7155 FILLER_46_150
*7156 FILLER_46_157
*7157 FILLER_46_164
*7158 FILLER_46_171
*7159 FILLER_46_178
*7160 FILLER_46_18
*7161 FILLER_46_185
*7162 FILLER_46_192
*7163 FILLER_46_199
*7164 FILLER_46_206
*7165 FILLER_46_213
*7166 FILLER_46_220
*7167 FILLER_46_227
*7168 FILLER_46_234
*7169 FILLER_46_241
*7170 FILLER_46_248
*7171 FILLER_46_25
*7172 FILLER_46_255
*7173 FILLER_46_262
*7174 FILLER_46_269
*7175 FILLER_46_276
*7176 FILLER_46_283
*7177 FILLER_46_290
*7178 FILLER_46_297
*7179 FILLER_46_304
*7180 FILLER_46_31
*7181 FILLER_46_311
*7182 FILLER_46_318
*7183 FILLER_46_325
*7184 FILLER_46_332
*7185 FILLER_46_339
*7186 FILLER_46_346
*7187 FILLER_46_35
*7188 FILLER_46_353
*7189 FILLER_46_360
*7190 FILLER_46_367
*7191 FILLER_46_374
*7192 FILLER_46_381
*7193 FILLER_46_388
*7194 FILLER_46_395
*7195 FILLER_46_4
*7196 FILLER_46_402
*7197 FILLER_46_409
*7198 FILLER_46_416
*7199 FILLER_46_423
*7200 FILLER_46_430
*7201 FILLER_46_437
*7202 FILLER_46_444
*7203 FILLER_46_45
*7204 FILLER_46_451
*7205 FILLER_46_458
*7206 FILLER_46_465
*7207 FILLER_46_472
*7208 FILLER_46_479
*7209 FILLER_46_486
*7210 FILLER_46_493
*7211 FILLER_46_500
*7212 FILLER_46_507
*7213 FILLER_46_514
*7214 FILLER_46_52
*7215 FILLER_46_521
*7216 FILLER_46_528
*7217 FILLER_46_535
*7218 FILLER_46_542
*7219 FILLER_46_549
*7220 FILLER_46_556
*7221 FILLER_46_563
*7222 FILLER_46_570
*7223 FILLER_46_577
*7224 FILLER_46_584
*7225 FILLER_46_59
*7226 FILLER_46_591
*7227 FILLER_46_598
*7228 FILLER_46_605
*7229 FILLER_46_612
*7230 FILLER_46_619
*7231 FILLER_46_626
*7232 FILLER_46_633
*7233 FILLER_46_640
*7234 FILLER_46_647
*7235 FILLER_46_654
*7236 FILLER_46_66
*7237 FILLER_46_661
*7238 FILLER_46_668
*7239 FILLER_46_675
*7240 FILLER_46_682
*7241 FILLER_46_689
*7242 FILLER_46_696
*7243 FILLER_46_703
*7244 FILLER_46_710
*7245 FILLER_46_717
*7246 FILLER_46_724
*7247 FILLER_46_73
*7248 FILLER_46_731
*7249 FILLER_46_738
*7250 FILLER_46_745
*7251 FILLER_46_752
*7252 FILLER_46_759
*7253 FILLER_46_766
*7254 FILLER_46_773
*7255 FILLER_46_780
*7256 FILLER_46_787
*7257 FILLER_46_794
*7258 FILLER_46_80
*7259 FILLER_46_801
*7260 FILLER_46_808
*7261 FILLER_46_815
*7262 FILLER_46_822
*7263 FILLER_46_829
*7264 FILLER_46_836
*7265 FILLER_46_843
*7266 FILLER_46_850
*7267 FILLER_46_857
*7268 FILLER_46_864
*7269 FILLER_46_87
*7270 FILLER_46_871
*7271 FILLER_46_878
*7272 FILLER_46_885
*7273 FILLER_46_892
*7274 FILLER_46_899
*7275 FILLER_46_906
*7276 FILLER_46_913
*7277 FILLER_46_920
*7278 FILLER_46_927
*7279 FILLER_46_934
*7280 FILLER_46_94
*7281 FILLER_46_941
*7282 FILLER_46_948
*7283 FILLER_46_955
*7284 FILLER_46_962
*7285 FILLER_46_969
*7286 FILLER_46_976
*7287 FILLER_46_983
*7288 FILLER_46_990
*7289 FILLER_46_997
*7290 FILLER_47_1005
*7291 FILLER_47_1012
*7292 FILLER_47_1019
*7293 FILLER_47_102
*7294 FILLER_47_1026
*7295 FILLER_47_1028
*7296 FILLER_47_109
*7297 FILLER_47_11
*7298 FILLER_47_116
*7299 FILLER_47_123
*7300 FILLER_47_130
*7301 FILLER_47_137
*7302 FILLER_47_144
*7303 FILLER_47_151
*7304 FILLER_47_158
*7305 FILLER_47_165
*7306 FILLER_47_172
*7307 FILLER_47_179
*7308 FILLER_47_18
*7309 FILLER_47_186
*7310 FILLER_47_193
*7311 FILLER_47_200
*7312 FILLER_47_207
*7313 FILLER_47_214
*7314 FILLER_47_221
*7315 FILLER_47_228
*7316 FILLER_47_235
*7317 FILLER_47_242
*7318 FILLER_47_249
*7319 FILLER_47_25
*7320 FILLER_47_256
*7321 FILLER_47_263
*7322 FILLER_47_270
*7323 FILLER_47_277
*7324 FILLER_47_284
*7325 FILLER_47_291
*7326 FILLER_47_298
*7327 FILLER_47_305
*7328 FILLER_47_312
*7329 FILLER_47_319
*7330 FILLER_47_32
*7331 FILLER_47_326
*7332 FILLER_47_333
*7333 FILLER_47_340
*7334 FILLER_47_347
*7335 FILLER_47_354
*7336 FILLER_47_361
*7337 FILLER_47_368
*7338 FILLER_47_375
*7339 FILLER_47_382
*7340 FILLER_47_389
*7341 FILLER_47_39
*7342 FILLER_47_396
*7343 FILLER_47_4
*7344 FILLER_47_403
*7345 FILLER_47_410
*7346 FILLER_47_417
*7347 FILLER_47_424
*7348 FILLER_47_431
*7349 FILLER_47_438
*7350 FILLER_47_445
*7351 FILLER_47_452
*7352 FILLER_47_459
*7353 FILLER_47_46
*7354 FILLER_47_466
*7355 FILLER_47_473
*7356 FILLER_47_480
*7357 FILLER_47_487
*7358 FILLER_47_494
*7359 FILLER_47_501
*7360 FILLER_47_508
*7361 FILLER_47_515
*7362 FILLER_47_522
*7363 FILLER_47_529
*7364 FILLER_47_53
*7365 FILLER_47_536
*7366 FILLER_47_543
*7367 FILLER_47_550
*7368 FILLER_47_557
*7369 FILLER_47_564
*7370 FILLER_47_571
*7371 FILLER_47_578
*7372 FILLER_47_585
*7373 FILLER_47_592
*7374 FILLER_47_599
*7375 FILLER_47_60
*7376 FILLER_47_606
*7377 FILLER_47_613
*7378 FILLER_47_620
*7379 FILLER_47_627
*7380 FILLER_47_634
*7381 FILLER_47_641
*7382 FILLER_47_648
*7383 FILLER_47_655
*7384 FILLER_47_662
*7385 FILLER_47_669
*7386 FILLER_47_67
*7387 FILLER_47_676
*7388 FILLER_47_683
*7389 FILLER_47_690
*7390 FILLER_47_697
*7391 FILLER_47_704
*7392 FILLER_47_711
*7393 FILLER_47_718
*7394 FILLER_47_725
*7395 FILLER_47_732
*7396 FILLER_47_739
*7397 FILLER_47_74
*7398 FILLER_47_746
*7399 FILLER_47_753
*7400 FILLER_47_760
*7401 FILLER_47_767
*7402 FILLER_47_774
*7403 FILLER_47_781
*7404 FILLER_47_788
*7405 FILLER_47_795
*7406 FILLER_47_802
*7407 FILLER_47_809
*7408 FILLER_47_81
*7409 FILLER_47_816
*7410 FILLER_47_823
*7411 FILLER_47_830
*7412 FILLER_47_837
*7413 FILLER_47_844
*7414 FILLER_47_851
*7415 FILLER_47_858
*7416 FILLER_47_865
*7417 FILLER_47_872
*7418 FILLER_47_879
*7419 FILLER_47_88
*7420 FILLER_47_886
*7421 FILLER_47_893
*7422 FILLER_47_900
*7423 FILLER_47_907
*7424 FILLER_47_914
*7425 FILLER_47_921
*7426 FILLER_47_928
*7427 FILLER_47_935
*7428 FILLER_47_942
*7429 FILLER_47_949
*7430 FILLER_47_95
*7431 FILLER_47_956
*7432 FILLER_47_963
*7433 FILLER_47_970
*7434 FILLER_47_977
*7435 FILLER_47_984
*7436 FILLER_47_991
*7437 FILLER_47_998
*7438 FILLER_48_1005
*7439 FILLER_48_1012
*7440 FILLER_48_1019
*7441 FILLER_48_102
*7442 FILLER_48_1026
*7443 FILLER_48_1028
*7444 FILLER_48_109
*7445 FILLER_48_11
*7446 FILLER_48_116
*7447 FILLER_48_123
*7448 FILLER_48_130
*7449 FILLER_48_137
*7450 FILLER_48_144
*7451 FILLER_48_151
*7452 FILLER_48_158
*7453 FILLER_48_165
*7454 FILLER_48_172
*7455 FILLER_48_179
*7456 FILLER_48_18
*7457 FILLER_48_186
*7458 FILLER_48_193
*7459 FILLER_48_200
*7460 FILLER_48_207
*7461 FILLER_48_214
*7462 FILLER_48_221
*7463 FILLER_48_228
*7464 FILLER_48_235
*7465 FILLER_48_242
*7466 FILLER_48_249
*7467 FILLER_48_25
*7468 FILLER_48_256
*7469 FILLER_48_263
*7470 FILLER_48_270
*7471 FILLER_48_277
*7472 FILLER_48_284
*7473 FILLER_48_291
*7474 FILLER_48_298
*7475 FILLER_48_305
*7476 FILLER_48_312
*7477 FILLER_48_319
*7478 FILLER_48_32
*7479 FILLER_48_326
*7480 FILLER_48_333
*7481 FILLER_48_340
*7482 FILLER_48_347
*7483 FILLER_48_354
*7484 FILLER_48_361
*7485 FILLER_48_368
*7486 FILLER_48_375
*7487 FILLER_48_382
*7488 FILLER_48_389
*7489 FILLER_48_39
*7490 FILLER_48_396
*7491 FILLER_48_4
*7492 FILLER_48_403
*7493 FILLER_48_410
*7494 FILLER_48_417
*7495 FILLER_48_424
*7496 FILLER_48_431
*7497 FILLER_48_438
*7498 FILLER_48_445
*7499 FILLER_48_452
*7500 FILLER_48_459
*7501 FILLER_48_46
*7502 FILLER_48_466
*7503 FILLER_48_473
*7504 FILLER_48_480
*7505 FILLER_48_487
*7506 FILLER_48_494
*7507 FILLER_48_501
*7508 FILLER_48_508
*7509 FILLER_48_515
*7510 FILLER_48_522
*7511 FILLER_48_529
*7512 FILLER_48_53
*7513 FILLER_48_536
*7514 FILLER_48_543
*7515 FILLER_48_550
*7516 FILLER_48_557
*7517 FILLER_48_564
*7518 FILLER_48_571
*7519 FILLER_48_578
*7520 FILLER_48_585
*7521 FILLER_48_592
*7522 FILLER_48_599
*7523 FILLER_48_60
*7524 FILLER_48_606
*7525 FILLER_48_613
*7526 FILLER_48_620
*7527 FILLER_48_627
*7528 FILLER_48_634
*7529 FILLER_48_641
*7530 FILLER_48_648
*7531 FILLER_48_655
*7532 FILLER_48_662
*7533 FILLER_48_669
*7534 FILLER_48_67
*7535 FILLER_48_676
*7536 FILLER_48_683
*7537 FILLER_48_690
*7538 FILLER_48_697
*7539 FILLER_48_704
*7540 FILLER_48_711
*7541 FILLER_48_718
*7542 FILLER_48_725
*7543 FILLER_48_732
*7544 FILLER_48_739
*7545 FILLER_48_74
*7546 FILLER_48_746
*7547 FILLER_48_753
*7548 FILLER_48_760
*7549 FILLER_48_767
*7550 FILLER_48_774
*7551 FILLER_48_781
*7552 FILLER_48_788
*7553 FILLER_48_795
*7554 FILLER_48_802
*7555 FILLER_48_809
*7556 FILLER_48_81
*7557 FILLER_48_816
*7558 FILLER_48_823
*7559 FILLER_48_830
*7560 FILLER_48_837
*7561 FILLER_48_844
*7562 FILLER_48_851
*7563 FILLER_48_858
*7564 FILLER_48_865
*7565 FILLER_48_872
*7566 FILLER_48_879
*7567 FILLER_48_88
*7568 FILLER_48_886
*7569 FILLER_48_893
*7570 FILLER_48_900
*7571 FILLER_48_907
*7572 FILLER_48_914
*7573 FILLER_48_921
*7574 FILLER_48_928
*7575 FILLER_48_935
*7576 FILLER_48_942
*7577 FILLER_48_949
*7578 FILLER_48_95
*7579 FILLER_48_956
*7580 FILLER_48_963
*7581 FILLER_48_970
*7582 FILLER_48_977
*7583 FILLER_48_984
*7584 FILLER_48_991
*7585 FILLER_48_998
*7586 FILLER_49_1000
*7587 FILLER_49_1007
*7588 FILLER_49_1014
*7589 FILLER_49_1021
*7590 FILLER_49_1028
*7591 FILLER_49_104
*7592 FILLER_49_11
*7593 FILLER_49_111
*7594 FILLER_49_118
*7595 FILLER_49_125
*7596 FILLER_49_132
*7597 FILLER_49_139
*7598 FILLER_49_146
*7599 FILLER_49_153
*7600 FILLER_49_160
*7601 FILLER_49_167
*7602 FILLER_49_174
*7603 FILLER_49_18
*7604 FILLER_49_181
*7605 FILLER_49_188
*7606 FILLER_49_195
*7607 FILLER_49_202
*7608 FILLER_49_209
*7609 FILLER_49_216
*7610 FILLER_49_223
*7611 FILLER_49_230
*7612 FILLER_49_237
*7613 FILLER_49_244
*7614 FILLER_49_25
*7615 FILLER_49_251
*7616 FILLER_49_258
*7617 FILLER_49_265
*7618 FILLER_49_272
*7619 FILLER_49_279
*7620 FILLER_49_286
*7621 FILLER_49_293
*7622 FILLER_49_300
*7623 FILLER_49_307
*7624 FILLER_49_314
*7625 FILLER_49_32
*7626 FILLER_49_321
*7627 FILLER_49_328
*7628 FILLER_49_335
*7629 FILLER_49_342
*7630 FILLER_49_349
*7631 FILLER_49_356
*7632 FILLER_49_363
*7633 FILLER_49_370
*7634 FILLER_49_377
*7635 FILLER_49_384
*7636 FILLER_49_39
*7637 FILLER_49_391
*7638 FILLER_49_398
*7639 FILLER_49_4
*7640 FILLER_49_405
*7641 FILLER_49_412
*7642 FILLER_49_419
*7643 FILLER_49_426
*7644 FILLER_49_433
*7645 FILLER_49_440
*7646 FILLER_49_447
*7647 FILLER_49_454
*7648 FILLER_49_46
*7649 FILLER_49_461
*7650 FILLER_49_468
*7651 FILLER_49_475
*7652 FILLER_49_482
*7653 FILLER_49_489
*7654 FILLER_49_496
*7655 FILLER_49_503
*7656 FILLER_49_510
*7657 FILLER_49_517
*7658 FILLER_49_524
*7659 FILLER_49_53
*7660 FILLER_49_531
*7661 FILLER_49_538
*7662 FILLER_49_545
*7663 FILLER_49_552
*7664 FILLER_49_559
*7665 FILLER_49_566
*7666 FILLER_49_573
*7667 FILLER_49_580
*7668 FILLER_49_587
*7669 FILLER_49_594
*7670 FILLER_49_60
*7671 FILLER_49_601
*7672 FILLER_49_608
*7673 FILLER_49_615
*7674 FILLER_49_622
*7675 FILLER_49_629
*7676 FILLER_49_636
*7677 FILLER_49_643
*7678 FILLER_49_650
*7679 FILLER_49_657
*7680 FILLER_49_664
*7681 FILLER_49_67
*7682 FILLER_49_671
*7683 FILLER_49_678
*7684 FILLER_49_685
*7685 FILLER_49_692
*7686 FILLER_49_699
*7687 FILLER_49_706
*7688 FILLER_49_713
*7689 FILLER_49_720
*7690 FILLER_49_727
*7691 FILLER_49_734
*7692 FILLER_49_74
*7693 FILLER_49_741
*7694 FILLER_49_748
*7695 FILLER_49_755
*7696 FILLER_49_762
*7697 FILLER_49_769
*7698 FILLER_49_776
*7699 FILLER_49_783
*7700 FILLER_49_790
*7701 FILLER_49_797
*7702 FILLER_49_804
*7703 FILLER_49_811
*7704 FILLER_49_818
*7705 FILLER_49_825
*7706 FILLER_49_832
*7707 FILLER_49_839
*7708 FILLER_49_846
*7709 FILLER_49_853
*7710 FILLER_49_860
*7711 FILLER_49_867
*7712 FILLER_49_874
*7713 FILLER_49_881
*7714 FILLER_49_888
*7715 FILLER_49_895
*7716 FILLER_49_902
*7717 FILLER_49_909
*7718 FILLER_49_916
*7719 FILLER_49_923
*7720 FILLER_49_930
*7721 FILLER_49_937
*7722 FILLER_49_944
*7723 FILLER_49_951
*7724 FILLER_49_958
*7725 FILLER_49_965
*7726 FILLER_49_97
*7727 FILLER_49_972
*7728 FILLER_49_979
*7729 FILLER_49_986
*7730 FILLER_49_993
*7731 FILLER_4_0
*7732 FILLER_4_1001
*7733 FILLER_4_1008
*7734 FILLER_4_1015
*7735 FILLER_4_1022
*7736 FILLER_4_105
*7737 FILLER_4_112
*7738 FILLER_4_119
*7739 FILLER_4_126
*7740 FILLER_4_133
*7741 FILLER_4_14
*7742 FILLER_4_140
*7743 FILLER_4_147
*7744 FILLER_4_154
*7745 FILLER_4_161
*7746 FILLER_4_168
*7747 FILLER_4_175
*7748 FILLER_4_182
*7749 FILLER_4_189
*7750 FILLER_4_196
*7751 FILLER_4_203
*7752 FILLER_4_21
*7753 FILLER_4_210
*7754 FILLER_4_217
*7755 FILLER_4_224
*7756 FILLER_4_231
*7757 FILLER_4_238
*7758 FILLER_4_245
*7759 FILLER_4_252
*7760 FILLER_4_259
*7761 FILLER_4_266
*7762 FILLER_4_273
*7763 FILLER_4_28
*7764 FILLER_4_280
*7765 FILLER_4_287
*7766 FILLER_4_294
*7767 FILLER_4_301
*7768 FILLER_4_308
*7769 FILLER_4_315
*7770 FILLER_4_322
*7771 FILLER_4_329
*7772 FILLER_4_336
*7773 FILLER_4_343
*7774 FILLER_4_35
*7775 FILLER_4_350
*7776 FILLER_4_357
*7777 FILLER_4_364
*7778 FILLER_4_371
*7779 FILLER_4_378
*7780 FILLER_4_385
*7781 FILLER_4_392
*7782 FILLER_4_399
*7783 FILLER_4_406
*7784 FILLER_4_413
*7785 FILLER_4_42
*7786 FILLER_4_420
*7787 FILLER_4_427
*7788 FILLER_4_434
*7789 FILLER_4_441
*7790 FILLER_4_448
*7791 FILLER_4_455
*7792 FILLER_4_462
*7793 FILLER_4_469
*7794 FILLER_4_476
*7795 FILLER_4_483
*7796 FILLER_4_49
*7797 FILLER_4_490
*7798 FILLER_4_497
*7799 FILLER_4_504
*7800 FILLER_4_511
*7801 FILLER_4_518
*7802 FILLER_4_525
*7803 FILLER_4_532
*7804 FILLER_4_539
*7805 FILLER_4_546
*7806 FILLER_4_553
*7807 FILLER_4_56
*7808 FILLER_4_560
*7809 FILLER_4_567
*7810 FILLER_4_574
*7811 FILLER_4_581
*7812 FILLER_4_588
*7813 FILLER_4_595
*7814 FILLER_4_602
*7815 FILLER_4_609
*7816 FILLER_4_616
*7817 FILLER_4_623
*7818 FILLER_4_63
*7819 FILLER_4_630
*7820 FILLER_4_637
*7821 FILLER_4_644
*7822 FILLER_4_651
*7823 FILLER_4_658
*7824 FILLER_4_665
*7825 FILLER_4_672
*7826 FILLER_4_679
*7827 FILLER_4_686
*7828 FILLER_4_693
*7829 FILLER_4_7
*7830 FILLER_4_70
*7831 FILLER_4_700
*7832 FILLER_4_707
*7833 FILLER_4_714
*7834 FILLER_4_721
*7835 FILLER_4_728
*7836 FILLER_4_735
*7837 FILLER_4_742
*7838 FILLER_4_749
*7839 FILLER_4_756
*7840 FILLER_4_763
*7841 FILLER_4_77
*7842 FILLER_4_770
*7843 FILLER_4_777
*7844 FILLER_4_784
*7845 FILLER_4_791
*7846 FILLER_4_798
*7847 FILLER_4_805
*7848 FILLER_4_812
*7849 FILLER_4_819
*7850 FILLER_4_826
*7851 FILLER_4_833
*7852 FILLER_4_84
*7853 FILLER_4_840
*7854 FILLER_4_847
*7855 FILLER_4_854
*7856 FILLER_4_861
*7857 FILLER_4_868
*7858 FILLER_4_875
*7859 FILLER_4_882
*7860 FILLER_4_889
*7861 FILLER_4_896
*7862 FILLER_4_903
*7863 FILLER_4_91
*7864 FILLER_4_910
*7865 FILLER_4_917
*7866 FILLER_4_924
*7867 FILLER_4_931
*7868 FILLER_4_938
*7869 FILLER_4_945
*7870 FILLER_4_952
*7871 FILLER_4_959
*7872 FILLER_4_966
*7873 FILLER_4_973
*7874 FILLER_4_98
*7875 FILLER_4_980
*7876 FILLER_4_987
*7877 FILLER_4_994
*7878 FILLER_50_1000
*7879 FILLER_50_1007
*7880 FILLER_50_1014
*7881 FILLER_50_1021
*7882 FILLER_50_1028
*7883 FILLER_50_104
*7884 FILLER_50_11
*7885 FILLER_50_111
*7886 FILLER_50_118
*7887 FILLER_50_125
*7888 FILLER_50_132
*7889 FILLER_50_139
*7890 FILLER_50_146
*7891 FILLER_50_153
*7892 FILLER_50_160
*7893 FILLER_50_167
*7894 FILLER_50_174
*7895 FILLER_50_18
*7896 FILLER_50_181
*7897 FILLER_50_188
*7898 FILLER_50_195
*7899 FILLER_50_202
*7900 FILLER_50_209
*7901 FILLER_50_216
*7902 FILLER_50_223
*7903 FILLER_50_230
*7904 FILLER_50_237
*7905 FILLER_50_244
*7906 FILLER_50_25
*7907 FILLER_50_251
*7908 FILLER_50_258
*7909 FILLER_50_265
*7910 FILLER_50_272
*7911 FILLER_50_279
*7912 FILLER_50_286
*7913 FILLER_50_293
*7914 FILLER_50_300
*7915 FILLER_50_307
*7916 FILLER_50_314
*7917 FILLER_50_32
*7918 FILLER_50_321
*7919 FILLER_50_328
*7920 FILLER_50_335
*7921 FILLER_50_342
*7922 FILLER_50_349
*7923 FILLER_50_356
*7924 FILLER_50_363
*7925 FILLER_50_370
*7926 FILLER_50_377
*7927 FILLER_50_384
*7928 FILLER_50_39
*7929 FILLER_50_391
*7930 FILLER_50_398
*7931 FILLER_50_4
*7932 FILLER_50_405
*7933 FILLER_50_412
*7934 FILLER_50_419
*7935 FILLER_50_426
*7936 FILLER_50_433
*7937 FILLER_50_440
*7938 FILLER_50_447
*7939 FILLER_50_454
*7940 FILLER_50_46
*7941 FILLER_50_461
*7942 FILLER_50_468
*7943 FILLER_50_475
*7944 FILLER_50_482
*7945 FILLER_50_489
*7946 FILLER_50_496
*7947 FILLER_50_503
*7948 FILLER_50_510
*7949 FILLER_50_517
*7950 FILLER_50_524
*7951 FILLER_50_53
*7952 FILLER_50_531
*7953 FILLER_50_538
*7954 FILLER_50_545
*7955 FILLER_50_552
*7956 FILLER_50_559
*7957 FILLER_50_566
*7958 FILLER_50_573
*7959 FILLER_50_580
*7960 FILLER_50_587
*7961 FILLER_50_594
*7962 FILLER_50_60
*7963 FILLER_50_601
*7964 FILLER_50_608
*7965 FILLER_50_615
*7966 FILLER_50_622
*7967 FILLER_50_629
*7968 FILLER_50_636
*7969 FILLER_50_643
*7970 FILLER_50_650
*7971 FILLER_50_657
*7972 FILLER_50_664
*7973 FILLER_50_67
*7974 FILLER_50_671
*7975 FILLER_50_678
*7976 FILLER_50_685
*7977 FILLER_50_692
*7978 FILLER_50_699
*7979 FILLER_50_706
*7980 FILLER_50_713
*7981 FILLER_50_720
*7982 FILLER_50_727
*7983 FILLER_50_734
*7984 FILLER_50_74
*7985 FILLER_50_741
*7986 FILLER_50_748
*7987 FILLER_50_755
*7988 FILLER_50_762
*7989 FILLER_50_769
*7990 FILLER_50_776
*7991 FILLER_50_783
*7992 FILLER_50_790
*7993 FILLER_50_797
*7994 FILLER_50_804
*7995 FILLER_50_81
*7996 FILLER_50_811
*7997 FILLER_50_818
*7998 FILLER_50_825
*7999 FILLER_50_832
*8000 FILLER_50_839
*8001 FILLER_50_846
*8002 FILLER_50_85
*8003 FILLER_50_853
*8004 FILLER_50_860
*8005 FILLER_50_867
*8006 FILLER_50_874
*8007 FILLER_50_881
*8008 FILLER_50_888
*8009 FILLER_50_895
*8010 FILLER_50_902
*8011 FILLER_50_909
*8012 FILLER_50_916
*8013 FILLER_50_923
*8014 FILLER_50_930
*8015 FILLER_50_937
*8016 FILLER_50_944
*8017 FILLER_50_951
*8018 FILLER_50_958
*8019 FILLER_50_965
*8020 FILLER_50_972
*8021 FILLER_50_979
*8022 FILLER_50_986
*8023 FILLER_50_993
*8024 FILLER_51_0
*8025 FILLER_51_1000
*8026 FILLER_51_1007
*8027 FILLER_51_1014
*8028 FILLER_51_1021
*8029 FILLER_51_1028
*8030 FILLER_51_104
*8031 FILLER_51_111
*8032 FILLER_51_118
*8033 FILLER_51_125
*8034 FILLER_51_132
*8035 FILLER_51_139
*8036 FILLER_51_14
*8037 FILLER_51_146
*8038 FILLER_51_153
*8039 FILLER_51_160
*8040 FILLER_51_167
*8041 FILLER_51_174
*8042 FILLER_51_181
*8043 FILLER_51_188
*8044 FILLER_51_195
*8045 FILLER_51_202
*8046 FILLER_51_209
*8047 FILLER_51_21
*8048 FILLER_51_216
*8049 FILLER_51_223
*8050 FILLER_51_230
*8051 FILLER_51_237
*8052 FILLER_51_244
*8053 FILLER_51_251
*8054 FILLER_51_258
*8055 FILLER_51_265
*8056 FILLER_51_272
*8057 FILLER_51_279
*8058 FILLER_51_28
*8059 FILLER_51_286
*8060 FILLER_51_293
*8061 FILLER_51_300
*8062 FILLER_51_307
*8063 FILLER_51_314
*8064 FILLER_51_321
*8065 FILLER_51_328
*8066 FILLER_51_335
*8067 FILLER_51_342
*8068 FILLER_51_349
*8069 FILLER_51_356
*8070 FILLER_51_363
*8071 FILLER_51_370
*8072 FILLER_51_377
*8073 FILLER_51_384
*8074 FILLER_51_391
*8075 FILLER_51_398
*8076 FILLER_51_40
*8077 FILLER_51_405
*8078 FILLER_51_412
*8079 FILLER_51_419
*8080 FILLER_51_42
*8081 FILLER_51_426
*8082 FILLER_51_433
*8083 FILLER_51_440
*8084 FILLER_51_447
*8085 FILLER_51_454
*8086 FILLER_51_461
*8087 FILLER_51_468
*8088 FILLER_51_475
*8089 FILLER_51_48
*8090 FILLER_51_482
*8091 FILLER_51_489
*8092 FILLER_51_496
*8093 FILLER_51_503
*8094 FILLER_51_510
*8095 FILLER_51_517
*8096 FILLER_51_524
*8097 FILLER_51_531
*8098 FILLER_51_538
*8099 FILLER_51_545
*8100 FILLER_51_55
*8101 FILLER_51_552
*8102 FILLER_51_559
*8103 FILLER_51_566
*8104 FILLER_51_573
*8105 FILLER_51_580
*8106 FILLER_51_587
*8107 FILLER_51_594
*8108 FILLER_51_601
*8109 FILLER_51_608
*8110 FILLER_51_615
*8111 FILLER_51_62
*8112 FILLER_51_622
*8113 FILLER_51_629
*8114 FILLER_51_636
*8115 FILLER_51_643
*8116 FILLER_51_650
*8117 FILLER_51_657
*8118 FILLER_51_664
*8119 FILLER_51_671
*8120 FILLER_51_678
*8121 FILLER_51_685
*8122 FILLER_51_69
*8123 FILLER_51_692
*8124 FILLER_51_699
*8125 FILLER_51_7
*8126 FILLER_51_706
*8127 FILLER_51_713
*8128 FILLER_51_720
*8129 FILLER_51_727
*8130 FILLER_51_734
*8131 FILLER_51_741
*8132 FILLER_51_748
*8133 FILLER_51_755
*8134 FILLER_51_76
*8135 FILLER_51_762
*8136 FILLER_51_769
*8137 FILLER_51_776
*8138 FILLER_51_783
*8139 FILLER_51_790
*8140 FILLER_51_797
*8141 FILLER_51_804
*8142 FILLER_51_811
*8143 FILLER_51_818
*8144 FILLER_51_825
*8145 FILLER_51_83
*8146 FILLER_51_832
*8147 FILLER_51_839
*8148 FILLER_51_846
*8149 FILLER_51_853
*8150 FILLER_51_860
*8151 FILLER_51_867
*8152 FILLER_51_874
*8153 FILLER_51_881
*8154 FILLER_51_888
*8155 FILLER_51_895
*8156 FILLER_51_90
*8157 FILLER_51_902
*8158 FILLER_51_909
*8159 FILLER_51_916
*8160 FILLER_51_923
*8161 FILLER_51_930
*8162 FILLER_51_937
*8163 FILLER_51_944
*8164 FILLER_51_951
*8165 FILLER_51_958
*8166 FILLER_51_965
*8167 FILLER_51_97
*8168 FILLER_51_972
*8169 FILLER_51_979
*8170 FILLER_51_986
*8171 FILLER_51_993
*8172 FILLER_52_1002
*8173 FILLER_52_1009
*8174 FILLER_52_1016
*8175 FILLER_52_1023
*8176 FILLER_52_1027
*8177 FILLER_52_106
*8178 FILLER_52_11
*8179 FILLER_52_113
*8180 FILLER_52_120
*8181 FILLER_52_127
*8182 FILLER_52_134
*8183 FILLER_52_141
*8184 FILLER_52_148
*8185 FILLER_52_155
*8186 FILLER_52_162
*8187 FILLER_52_169
*8188 FILLER_52_176
*8189 FILLER_52_18
*8190 FILLER_52_183
*8191 FILLER_52_190
*8192 FILLER_52_197
*8193 FILLER_52_204
*8194 FILLER_52_211
*8195 FILLER_52_218
*8196 FILLER_52_225
*8197 FILLER_52_232
*8198 FILLER_52_239
*8199 FILLER_52_246
*8200 FILLER_52_25
*8201 FILLER_52_253
*8202 FILLER_52_260
*8203 FILLER_52_267
*8204 FILLER_52_274
*8205 FILLER_52_281
*8206 FILLER_52_288
*8207 FILLER_52_29
*8208 FILLER_52_295
*8209 FILLER_52_302
*8210 FILLER_52_309
*8211 FILLER_52_316
*8212 FILLER_52_323
*8213 FILLER_52_330
*8214 FILLER_52_337
*8215 FILLER_52_344
*8216 FILLER_52_351
*8217 FILLER_52_358
*8218 FILLER_52_365
*8219 FILLER_52_372
*8220 FILLER_52_379
*8221 FILLER_52_386
*8222 FILLER_52_39
*8223 FILLER_52_393
*8224 FILLER_52_4
*8225 FILLER_52_400
*8226 FILLER_52_407
*8227 FILLER_52_414
*8228 FILLER_52_421
*8229 FILLER_52_428
*8230 FILLER_52_435
*8231 FILLER_52_442
*8232 FILLER_52_449
*8233 FILLER_52_456
*8234 FILLER_52_46
*8235 FILLER_52_463
*8236 FILLER_52_470
*8237 FILLER_52_477
*8238 FILLER_52_484
*8239 FILLER_52_491
*8240 FILLER_52_498
*8241 FILLER_52_505
*8242 FILLER_52_512
*8243 FILLER_52_519
*8244 FILLER_52_526
*8245 FILLER_52_53
*8246 FILLER_52_533
*8247 FILLER_52_540
*8248 FILLER_52_547
*8249 FILLER_52_554
*8250 FILLER_52_561
*8251 FILLER_52_568
*8252 FILLER_52_575
*8253 FILLER_52_582
*8254 FILLER_52_589
*8255 FILLER_52_596
*8256 FILLER_52_60
*8257 FILLER_52_603
*8258 FILLER_52_610
*8259 FILLER_52_617
*8260 FILLER_52_624
*8261 FILLER_52_631
*8262 FILLER_52_638
*8263 FILLER_52_645
*8264 FILLER_52_652
*8265 FILLER_52_659
*8266 FILLER_52_666
*8267 FILLER_52_67
*8268 FILLER_52_673
*8269 FILLER_52_680
*8270 FILLER_52_687
*8271 FILLER_52_694
*8272 FILLER_52_701
*8273 FILLER_52_708
*8274 FILLER_52_715
*8275 FILLER_52_722
*8276 FILLER_52_729
*8277 FILLER_52_736
*8278 FILLER_52_74
*8279 FILLER_52_743
*8280 FILLER_52_750
*8281 FILLER_52_757
*8282 FILLER_52_764
*8283 FILLER_52_771
*8284 FILLER_52_778
*8285 FILLER_52_785
*8286 FILLER_52_792
*8287 FILLER_52_799
*8288 FILLER_52_806
*8289 FILLER_52_81
*8290 FILLER_52_813
*8291 FILLER_52_820
*8292 FILLER_52_827
*8293 FILLER_52_834
*8294 FILLER_52_841
*8295 FILLER_52_848
*8296 FILLER_52_855
*8297 FILLER_52_862
*8298 FILLER_52_869
*8299 FILLER_52_876
*8300 FILLER_52_88
*8301 FILLER_52_883
*8302 FILLER_52_890
*8303 FILLER_52_897
*8304 FILLER_52_904
*8305 FILLER_52_911
*8306 FILLER_52_918
*8307 FILLER_52_92
*8308 FILLER_52_925
*8309 FILLER_52_932
*8310 FILLER_52_939
*8311 FILLER_52_946
*8312 FILLER_52_953
*8313 FILLER_52_960
*8314 FILLER_52_967
*8315 FILLER_52_974
*8316 FILLER_52_981
*8317 FILLER_52_988
*8318 FILLER_52_99
*8319 FILLER_52_995
*8320 FILLER_53_1005
*8321 FILLER_53_1012
*8322 FILLER_53_1019
*8323 FILLER_53_102
*8324 FILLER_53_1026
*8325 FILLER_53_1028
*8326 FILLER_53_109
*8327 FILLER_53_11
*8328 FILLER_53_116
*8329 FILLER_53_123
*8330 FILLER_53_130
*8331 FILLER_53_137
*8332 FILLER_53_144
*8333 FILLER_53_151
*8334 FILLER_53_158
*8335 FILLER_53_165
*8336 FILLER_53_172
*8337 FILLER_53_179
*8338 FILLER_53_18
*8339 FILLER_53_186
*8340 FILLER_53_193
*8341 FILLER_53_200
*8342 FILLER_53_207
*8343 FILLER_53_214
*8344 FILLER_53_221
*8345 FILLER_53_228
*8346 FILLER_53_235
*8347 FILLER_53_242
*8348 FILLER_53_249
*8349 FILLER_53_25
*8350 FILLER_53_256
*8351 FILLER_53_263
*8352 FILLER_53_270
*8353 FILLER_53_277
*8354 FILLER_53_284
*8355 FILLER_53_291
*8356 FILLER_53_298
*8357 FILLER_53_305
*8358 FILLER_53_312
*8359 FILLER_53_319
*8360 FILLER_53_32
*8361 FILLER_53_326
*8362 FILLER_53_333
*8363 FILLER_53_340
*8364 FILLER_53_347
*8365 FILLER_53_354
*8366 FILLER_53_361
*8367 FILLER_53_368
*8368 FILLER_53_375
*8369 FILLER_53_382
*8370 FILLER_53_389
*8371 FILLER_53_39
*8372 FILLER_53_396
*8373 FILLER_53_4
*8374 FILLER_53_403
*8375 FILLER_53_410
*8376 FILLER_53_417
*8377 FILLER_53_424
*8378 FILLER_53_431
*8379 FILLER_53_438
*8380 FILLER_53_445
*8381 FILLER_53_452
*8382 FILLER_53_459
*8383 FILLER_53_46
*8384 FILLER_53_466
*8385 FILLER_53_473
*8386 FILLER_53_480
*8387 FILLER_53_487
*8388 FILLER_53_494
*8389 FILLER_53_501
*8390 FILLER_53_508
*8391 FILLER_53_515
*8392 FILLER_53_522
*8393 FILLER_53_529
*8394 FILLER_53_53
*8395 FILLER_53_536
*8396 FILLER_53_543
*8397 FILLER_53_550
*8398 FILLER_53_557
*8399 FILLER_53_564
*8400 FILLER_53_571
*8401 FILLER_53_578
*8402 FILLER_53_585
*8403 FILLER_53_592
*8404 FILLER_53_599
*8405 FILLER_53_60
*8406 FILLER_53_606
*8407 FILLER_53_613
*8408 FILLER_53_620
*8409 FILLER_53_627
*8410 FILLER_53_634
*8411 FILLER_53_641
*8412 FILLER_53_648
*8413 FILLER_53_655
*8414 FILLER_53_662
*8415 FILLER_53_669
*8416 FILLER_53_67
*8417 FILLER_53_676
*8418 FILLER_53_683
*8419 FILLER_53_690
*8420 FILLER_53_697
*8421 FILLER_53_704
*8422 FILLER_53_711
*8423 FILLER_53_718
*8424 FILLER_53_725
*8425 FILLER_53_732
*8426 FILLER_53_739
*8427 FILLER_53_74
*8428 FILLER_53_746
*8429 FILLER_53_753
*8430 FILLER_53_760
*8431 FILLER_53_767
*8432 FILLER_53_774
*8433 FILLER_53_781
*8434 FILLER_53_788
*8435 FILLER_53_795
*8436 FILLER_53_802
*8437 FILLER_53_809
*8438 FILLER_53_81
*8439 FILLER_53_816
*8440 FILLER_53_823
*8441 FILLER_53_830
*8442 FILLER_53_837
*8443 FILLER_53_844
*8444 FILLER_53_851
*8445 FILLER_53_858
*8446 FILLER_53_865
*8447 FILLER_53_872
*8448 FILLER_53_879
*8449 FILLER_53_88
*8450 FILLER_53_886
*8451 FILLER_53_893
*8452 FILLER_53_900
*8453 FILLER_53_907
*8454 FILLER_53_914
*8455 FILLER_53_921
*8456 FILLER_53_928
*8457 FILLER_53_935
*8458 FILLER_53_942
*8459 FILLER_53_949
*8460 FILLER_53_95
*8461 FILLER_53_956
*8462 FILLER_53_963
*8463 FILLER_53_970
*8464 FILLER_53_977
*8465 FILLER_53_984
*8466 FILLER_53_991
*8467 FILLER_53_998
*8468 FILLER_54_1005
*8469 FILLER_54_1012
*8470 FILLER_54_1019
*8471 FILLER_54_102
*8472 FILLER_54_1026
*8473 FILLER_54_1028
*8474 FILLER_54_109
*8475 FILLER_54_11
*8476 FILLER_54_116
*8477 FILLER_54_123
*8478 FILLER_54_130
*8479 FILLER_54_137
*8480 FILLER_54_144
*8481 FILLER_54_151
*8482 FILLER_54_158
*8483 FILLER_54_165
*8484 FILLER_54_172
*8485 FILLER_54_179
*8486 FILLER_54_18
*8487 FILLER_54_186
*8488 FILLER_54_193
*8489 FILLER_54_200
*8490 FILLER_54_207
*8491 FILLER_54_214
*8492 FILLER_54_221
*8493 FILLER_54_228
*8494 FILLER_54_235
*8495 FILLER_54_242
*8496 FILLER_54_249
*8497 FILLER_54_25
*8498 FILLER_54_256
*8499 FILLER_54_263
*8500 FILLER_54_270
*8501 FILLER_54_277
*8502 FILLER_54_284
*8503 FILLER_54_291
*8504 FILLER_54_298
*8505 FILLER_54_305
*8506 FILLER_54_312
*8507 FILLER_54_319
*8508 FILLER_54_32
*8509 FILLER_54_326
*8510 FILLER_54_333
*8511 FILLER_54_340
*8512 FILLER_54_347
*8513 FILLER_54_354
*8514 FILLER_54_361
*8515 FILLER_54_368
*8516 FILLER_54_375
*8517 FILLER_54_382
*8518 FILLER_54_389
*8519 FILLER_54_39
*8520 FILLER_54_396
*8521 FILLER_54_4
*8522 FILLER_54_403
*8523 FILLER_54_410
*8524 FILLER_54_417
*8525 FILLER_54_424
*8526 FILLER_54_431
*8527 FILLER_54_438
*8528 FILLER_54_445
*8529 FILLER_54_452
*8530 FILLER_54_459
*8531 FILLER_54_46
*8532 FILLER_54_466
*8533 FILLER_54_473
*8534 FILLER_54_480
*8535 FILLER_54_487
*8536 FILLER_54_494
*8537 FILLER_54_501
*8538 FILLER_54_508
*8539 FILLER_54_515
*8540 FILLER_54_522
*8541 FILLER_54_529
*8542 FILLER_54_53
*8543 FILLER_54_536
*8544 FILLER_54_543
*8545 FILLER_54_550
*8546 FILLER_54_557
*8547 FILLER_54_564
*8548 FILLER_54_571
*8549 FILLER_54_578
*8550 FILLER_54_585
*8551 FILLER_54_592
*8552 FILLER_54_599
*8553 FILLER_54_60
*8554 FILLER_54_606
*8555 FILLER_54_613
*8556 FILLER_54_620
*8557 FILLER_54_627
*8558 FILLER_54_634
*8559 FILLER_54_641
*8560 FILLER_54_648
*8561 FILLER_54_655
*8562 FILLER_54_662
*8563 FILLER_54_669
*8564 FILLER_54_67
*8565 FILLER_54_676
*8566 FILLER_54_683
*8567 FILLER_54_690
*8568 FILLER_54_697
*8569 FILLER_54_704
*8570 FILLER_54_711
*8571 FILLER_54_718
*8572 FILLER_54_725
*8573 FILLER_54_732
*8574 FILLER_54_739
*8575 FILLER_54_74
*8576 FILLER_54_746
*8577 FILLER_54_753
*8578 FILLER_54_760
*8579 FILLER_54_767
*8580 FILLER_54_774
*8581 FILLER_54_781
*8582 FILLER_54_788
*8583 FILLER_54_795
*8584 FILLER_54_802
*8585 FILLER_54_809
*8586 FILLER_54_81
*8587 FILLER_54_816
*8588 FILLER_54_823
*8589 FILLER_54_830
*8590 FILLER_54_837
*8591 FILLER_54_844
*8592 FILLER_54_851
*8593 FILLER_54_858
*8594 FILLER_54_865
*8595 FILLER_54_872
*8596 FILLER_54_879
*8597 FILLER_54_88
*8598 FILLER_54_886
*8599 FILLER_54_893
*8600 FILLER_54_900
*8601 FILLER_54_907
*8602 FILLER_54_914
*8603 FILLER_54_921
*8604 FILLER_54_928
*8605 FILLER_54_935
*8606 FILLER_54_942
*8607 FILLER_54_949
*8608 FILLER_54_95
*8609 FILLER_54_956
*8610 FILLER_54_963
*8611 FILLER_54_970
*8612 FILLER_54_977
*8613 FILLER_54_984
*8614 FILLER_54_991
*8615 FILLER_54_998
*8616 FILLER_55_1006
*8617 FILLER_55_1013
*8618 FILLER_55_1020
*8619 FILLER_55_1027
*8620 FILLER_55_103
*8621 FILLER_55_11
*8622 FILLER_55_110
*8623 FILLER_55_117
*8624 FILLER_55_124
*8625 FILLER_55_131
*8626 FILLER_55_138
*8627 FILLER_55_145
*8628 FILLER_55_152
*8629 FILLER_55_159
*8630 FILLER_55_166
*8631 FILLER_55_173
*8632 FILLER_55_18
*8633 FILLER_55_180
*8634 FILLER_55_187
*8635 FILLER_55_194
*8636 FILLER_55_201
*8637 FILLER_55_208
*8638 FILLER_55_215
*8639 FILLER_55_222
*8640 FILLER_55_229
*8641 FILLER_55_236
*8642 FILLER_55_243
*8643 FILLER_55_25
*8644 FILLER_55_250
*8645 FILLER_55_257
*8646 FILLER_55_264
*8647 FILLER_55_271
*8648 FILLER_55_278
*8649 FILLER_55_285
*8650 FILLER_55_292
*8651 FILLER_55_299
*8652 FILLER_55_306
*8653 FILLER_55_313
*8654 FILLER_55_32
*8655 FILLER_55_320
*8656 FILLER_55_327
*8657 FILLER_55_334
*8658 FILLER_55_341
*8659 FILLER_55_348
*8660 FILLER_55_355
*8661 FILLER_55_362
*8662 FILLER_55_369
*8663 FILLER_55_376
*8664 FILLER_55_383
*8665 FILLER_55_39
*8666 FILLER_55_390
*8667 FILLER_55_397
*8668 FILLER_55_4
*8669 FILLER_55_404
*8670 FILLER_55_411
*8671 FILLER_55_418
*8672 FILLER_55_425
*8673 FILLER_55_432
*8674 FILLER_55_439
*8675 FILLER_55_446
*8676 FILLER_55_453
*8677 FILLER_55_46
*8678 FILLER_55_460
*8679 FILLER_55_467
*8680 FILLER_55_474
*8681 FILLER_55_481
*8682 FILLER_55_488
*8683 FILLER_55_495
*8684 FILLER_55_502
*8685 FILLER_55_509
*8686 FILLER_55_516
*8687 FILLER_55_523
*8688 FILLER_55_53
*8689 FILLER_55_530
*8690 FILLER_55_537
*8691 FILLER_55_544
*8692 FILLER_55_551
*8693 FILLER_55_558
*8694 FILLER_55_565
*8695 FILLER_55_572
*8696 FILLER_55_579
*8697 FILLER_55_586
*8698 FILLER_55_593
*8699 FILLER_55_60
*8700 FILLER_55_600
*8701 FILLER_55_607
*8702 FILLER_55_614
*8703 FILLER_55_621
*8704 FILLER_55_628
*8705 FILLER_55_635
*8706 FILLER_55_642
*8707 FILLER_55_649
*8708 FILLER_55_656
*8709 FILLER_55_663
*8710 FILLER_55_67
*8711 FILLER_55_670
*8712 FILLER_55_677
*8713 FILLER_55_684
*8714 FILLER_55_691
*8715 FILLER_55_698
*8716 FILLER_55_705
*8717 FILLER_55_712
*8718 FILLER_55_719
*8719 FILLER_55_726
*8720 FILLER_55_733
*8721 FILLER_55_74
*8722 FILLER_55_740
*8723 FILLER_55_747
*8724 FILLER_55_754
*8725 FILLER_55_761
*8726 FILLER_55_768
*8727 FILLER_55_775
*8728 FILLER_55_78
*8729 FILLER_55_782
*8730 FILLER_55_789
*8731 FILLER_55_796
*8732 FILLER_55_803
*8733 FILLER_55_810
*8734 FILLER_55_817
*8735 FILLER_55_824
*8736 FILLER_55_831
*8737 FILLER_55_838
*8738 FILLER_55_845
*8739 FILLER_55_852
*8740 FILLER_55_859
*8741 FILLER_55_866
*8742 FILLER_55_873
*8743 FILLER_55_880
*8744 FILLER_55_887
*8745 FILLER_55_894
*8746 FILLER_55_901
*8747 FILLER_55_908
*8748 FILLER_55_915
*8749 FILLER_55_922
*8750 FILLER_55_929
*8751 FILLER_55_936
*8752 FILLER_55_943
*8753 FILLER_55_950
*8754 FILLER_55_957
*8755 FILLER_55_96
*8756 FILLER_55_964
*8757 FILLER_55_971
*8758 FILLER_55_978
*8759 FILLER_55_985
*8760 FILLER_55_992
*8761 FILLER_55_999
*8762 FILLER_56_1002
*8763 FILLER_56_1009
*8764 FILLER_56_1016
*8765 FILLER_56_1023
*8766 FILLER_56_1027
*8767 FILLER_56_106
*8768 FILLER_56_11
*8769 FILLER_56_113
*8770 FILLER_56_120
*8771 FILLER_56_127
*8772 FILLER_56_134
*8773 FILLER_56_141
*8774 FILLER_56_148
*8775 FILLER_56_155
*8776 FILLER_56_162
*8777 FILLER_56_169
*8778 FILLER_56_176
*8779 FILLER_56_18
*8780 FILLER_56_183
*8781 FILLER_56_190
*8782 FILLER_56_197
*8783 FILLER_56_204
*8784 FILLER_56_211
*8785 FILLER_56_218
*8786 FILLER_56_225
*8787 FILLER_56_232
*8788 FILLER_56_239
*8789 FILLER_56_246
*8790 FILLER_56_25
*8791 FILLER_56_253
*8792 FILLER_56_260
*8793 FILLER_56_267
*8794 FILLER_56_274
*8795 FILLER_56_281
*8796 FILLER_56_288
*8797 FILLER_56_295
*8798 FILLER_56_302
*8799 FILLER_56_309
*8800 FILLER_56_316
*8801 FILLER_56_32
*8802 FILLER_56_323
*8803 FILLER_56_330
*8804 FILLER_56_337
*8805 FILLER_56_344
*8806 FILLER_56_351
*8807 FILLER_56_358
*8808 FILLER_56_365
*8809 FILLER_56_372
*8810 FILLER_56_379
*8811 FILLER_56_386
*8812 FILLER_56_39
*8813 FILLER_56_393
*8814 FILLER_56_4
*8815 FILLER_56_400
*8816 FILLER_56_407
*8817 FILLER_56_414
*8818 FILLER_56_421
*8819 FILLER_56_428
*8820 FILLER_56_435
*8821 FILLER_56_442
*8822 FILLER_56_449
*8823 FILLER_56_456
*8824 FILLER_56_46
*8825 FILLER_56_463
*8826 FILLER_56_470
*8827 FILLER_56_477
*8828 FILLER_56_484
*8829 FILLER_56_491
*8830 FILLER_56_498
*8831 FILLER_56_505
*8832 FILLER_56_512
*8833 FILLER_56_519
*8834 FILLER_56_526
*8835 FILLER_56_53
*8836 FILLER_56_533
*8837 FILLER_56_540
*8838 FILLER_56_547
*8839 FILLER_56_554
*8840 FILLER_56_561
*8841 FILLER_56_568
*8842 FILLER_56_575
*8843 FILLER_56_582
*8844 FILLER_56_589
*8845 FILLER_56_596
*8846 FILLER_56_60
*8847 FILLER_56_603
*8848 FILLER_56_610
*8849 FILLER_56_617
*8850 FILLER_56_624
*8851 FILLER_56_631
*8852 FILLER_56_638
*8853 FILLER_56_645
*8854 FILLER_56_652
*8855 FILLER_56_659
*8856 FILLER_56_666
*8857 FILLER_56_67
*8858 FILLER_56_673
*8859 FILLER_56_680
*8860 FILLER_56_687
*8861 FILLER_56_694
*8862 FILLER_56_701
*8863 FILLER_56_708
*8864 FILLER_56_715
*8865 FILLER_56_722
*8866 FILLER_56_729
*8867 FILLER_56_736
*8868 FILLER_56_74
*8869 FILLER_56_743
*8870 FILLER_56_750
*8871 FILLER_56_757
*8872 FILLER_56_764
*8873 FILLER_56_771
*8874 FILLER_56_778
*8875 FILLER_56_78
*8876 FILLER_56_785
*8877 FILLER_56_792
*8878 FILLER_56_799
*8879 FILLER_56_806
*8880 FILLER_56_813
*8881 FILLER_56_820
*8882 FILLER_56_827
*8883 FILLER_56_834
*8884 FILLER_56_841
*8885 FILLER_56_848
*8886 FILLER_56_855
*8887 FILLER_56_862
*8888 FILLER_56_869
*8889 FILLER_56_876
*8890 FILLER_56_883
*8891 FILLER_56_890
*8892 FILLER_56_897
*8893 FILLER_56_904
*8894 FILLER_56_911
*8895 FILLER_56_918
*8896 FILLER_56_92
*8897 FILLER_56_925
*8898 FILLER_56_932
*8899 FILLER_56_939
*8900 FILLER_56_946
*8901 FILLER_56_953
*8902 FILLER_56_960
*8903 FILLER_56_967
*8904 FILLER_56_974
*8905 FILLER_56_981
*8906 FILLER_56_988
*8907 FILLER_56_99
*8908 FILLER_56_995
*8909 FILLER_57_1004
*8910 FILLER_57_101
*8911 FILLER_57_1011
*8912 FILLER_57_1018
*8913 FILLER_57_1025
*8914 FILLER_57_108
*8915 FILLER_57_11
*8916 FILLER_57_115
*8917 FILLER_57_122
*8918 FILLER_57_129
*8919 FILLER_57_136
*8920 FILLER_57_143
*8921 FILLER_57_150
*8922 FILLER_57_157
*8923 FILLER_57_164
*8924 FILLER_57_171
*8925 FILLER_57_178
*8926 FILLER_57_18
*8927 FILLER_57_185
*8928 FILLER_57_192
*8929 FILLER_57_199
*8930 FILLER_57_206
*8931 FILLER_57_213
*8932 FILLER_57_220
*8933 FILLER_57_227
*8934 FILLER_57_234
*8935 FILLER_57_241
*8936 FILLER_57_248
*8937 FILLER_57_25
*8938 FILLER_57_255
*8939 FILLER_57_262
*8940 FILLER_57_269
*8941 FILLER_57_276
*8942 FILLER_57_283
*8943 FILLER_57_290
*8944 FILLER_57_297
*8945 FILLER_57_304
*8946 FILLER_57_311
*8947 FILLER_57_318
*8948 FILLER_57_32
*8949 FILLER_57_325
*8950 FILLER_57_332
*8951 FILLER_57_339
*8952 FILLER_57_346
*8953 FILLER_57_353
*8954 FILLER_57_360
*8955 FILLER_57_367
*8956 FILLER_57_374
*8957 FILLER_57_381
*8958 FILLER_57_388
*8959 FILLER_57_39
*8960 FILLER_57_395
*8961 FILLER_57_4
*8962 FILLER_57_402
*8963 FILLER_57_409
*8964 FILLER_57_416
*8965 FILLER_57_423
*8966 FILLER_57_430
*8967 FILLER_57_437
*8968 FILLER_57_444
*8969 FILLER_57_451
*8970 FILLER_57_458
*8971 FILLER_57_46
*8972 FILLER_57_465
*8973 FILLER_57_472
*8974 FILLER_57_479
*8975 FILLER_57_486
*8976 FILLER_57_493
*8977 FILLER_57_50
*8978 FILLER_57_500
*8979 FILLER_57_507
*8980 FILLER_57_514
*8981 FILLER_57_521
*8982 FILLER_57_528
*8983 FILLER_57_535
*8984 FILLER_57_542
*8985 FILLER_57_549
*8986 FILLER_57_556
*8987 FILLER_57_563
*8988 FILLER_57_570
*8989 FILLER_57_577
*8990 FILLER_57_584
*8991 FILLER_57_59
*8992 FILLER_57_591
*8993 FILLER_57_598
*8994 FILLER_57_605
*8995 FILLER_57_612
*8996 FILLER_57_619
*8997 FILLER_57_626
*8998 FILLER_57_633
*8999 FILLER_57_640
*9000 FILLER_57_647
*9001 FILLER_57_654
*9002 FILLER_57_66
*9003 FILLER_57_661
*9004 FILLER_57_668
*9005 FILLER_57_675
*9006 FILLER_57_682
*9007 FILLER_57_689
*9008 FILLER_57_696
*9009 FILLER_57_703
*9010 FILLER_57_710
*9011 FILLER_57_717
*9012 FILLER_57_724
*9013 FILLER_57_73
*9014 FILLER_57_731
*9015 FILLER_57_738
*9016 FILLER_57_745
*9017 FILLER_57_752
*9018 FILLER_57_759
*9019 FILLER_57_766
*9020 FILLER_57_773
*9021 FILLER_57_780
*9022 FILLER_57_787
*9023 FILLER_57_794
*9024 FILLER_57_80
*9025 FILLER_57_801
*9026 FILLER_57_808
*9027 FILLER_57_815
*9028 FILLER_57_822
*9029 FILLER_57_829
*9030 FILLER_57_836
*9031 FILLER_57_843
*9032 FILLER_57_850
*9033 FILLER_57_857
*9034 FILLER_57_864
*9035 FILLER_57_87
*9036 FILLER_57_871
*9037 FILLER_57_878
*9038 FILLER_57_885
*9039 FILLER_57_892
*9040 FILLER_57_899
*9041 FILLER_57_906
*9042 FILLER_57_913
*9043 FILLER_57_920
*9044 FILLER_57_927
*9045 FILLER_57_934
*9046 FILLER_57_94
*9047 FILLER_57_941
*9048 FILLER_57_948
*9049 FILLER_57_955
*9050 FILLER_57_962
*9051 FILLER_57_969
*9052 FILLER_57_976
*9053 FILLER_57_983
*9054 FILLER_57_990
*9055 FILLER_57_997
*9056 FILLER_58_1003
*9057 FILLER_58_1010
*9058 FILLER_58_1017
*9059 FILLER_58_102
*9060 FILLER_58_1024
*9061 FILLER_58_1028
*9062 FILLER_58_109
*9063 FILLER_58_11
*9064 FILLER_58_121
*9065 FILLER_58_128
*9066 FILLER_58_135
*9067 FILLER_58_142
*9068 FILLER_58_149
*9069 FILLER_58_156
*9070 FILLER_58_163
*9071 FILLER_58_170
*9072 FILLER_58_177
*9073 FILLER_58_18
*9074 FILLER_58_184
*9075 FILLER_58_191
*9076 FILLER_58_198
*9077 FILLER_58_205
*9078 FILLER_58_212
*9079 FILLER_58_219
*9080 FILLER_58_226
*9081 FILLER_58_233
*9082 FILLER_58_240
*9083 FILLER_58_247
*9084 FILLER_58_25
*9085 FILLER_58_254
*9086 FILLER_58_261
*9087 FILLER_58_268
*9088 FILLER_58_275
*9089 FILLER_58_282
*9090 FILLER_58_289
*9091 FILLER_58_296
*9092 FILLER_58_303
*9093 FILLER_58_310
*9094 FILLER_58_317
*9095 FILLER_58_32
*9096 FILLER_58_324
*9097 FILLER_58_331
*9098 FILLER_58_338
*9099 FILLER_58_345
*9100 FILLER_58_352
*9101 FILLER_58_359
*9102 FILLER_58_366
*9103 FILLER_58_373
*9104 FILLER_58_380
*9105 FILLER_58_387
*9106 FILLER_58_39
*9107 FILLER_58_394
*9108 FILLER_58_4
*9109 FILLER_58_401
*9110 FILLER_58_408
*9111 FILLER_58_415
*9112 FILLER_58_422
*9113 FILLER_58_429
*9114 FILLER_58_436
*9115 FILLER_58_443
*9116 FILLER_58_450
*9117 FILLER_58_457
*9118 FILLER_58_46
*9119 FILLER_58_464
*9120 FILLER_58_471
*9121 FILLER_58_478
*9122 FILLER_58_485
*9123 FILLER_58_492
*9124 FILLER_58_499
*9125 FILLER_58_506
*9126 FILLER_58_513
*9127 FILLER_58_520
*9128 FILLER_58_527
*9129 FILLER_58_53
*9130 FILLER_58_534
*9131 FILLER_58_541
*9132 FILLER_58_548
*9133 FILLER_58_555
*9134 FILLER_58_562
*9135 FILLER_58_569
*9136 FILLER_58_576
*9137 FILLER_58_583
*9138 FILLER_58_590
*9139 FILLER_58_597
*9140 FILLER_58_60
*9141 FILLER_58_604
*9142 FILLER_58_611
*9143 FILLER_58_618
*9144 FILLER_58_625
*9145 FILLER_58_632
*9146 FILLER_58_639
*9147 FILLER_58_646
*9148 FILLER_58_653
*9149 FILLER_58_660
*9150 FILLER_58_667
*9151 FILLER_58_67
*9152 FILLER_58_674
*9153 FILLER_58_681
*9154 FILLER_58_688
*9155 FILLER_58_695
*9156 FILLER_58_702
*9157 FILLER_58_709
*9158 FILLER_58_716
*9159 FILLER_58_723
*9160 FILLER_58_730
*9161 FILLER_58_737
*9162 FILLER_58_74
*9163 FILLER_58_744
*9164 FILLER_58_751
*9165 FILLER_58_758
*9166 FILLER_58_765
*9167 FILLER_58_772
*9168 FILLER_58_779
*9169 FILLER_58_786
*9170 FILLER_58_793
*9171 FILLER_58_800
*9172 FILLER_58_807
*9173 FILLER_58_81
*9174 FILLER_58_814
*9175 FILLER_58_821
*9176 FILLER_58_828
*9177 FILLER_58_835
*9178 FILLER_58_842
*9179 FILLER_58_849
*9180 FILLER_58_856
*9181 FILLER_58_863
*9182 FILLER_58_870
*9183 FILLER_58_877
*9184 FILLER_58_88
*9185 FILLER_58_884
*9186 FILLER_58_891
*9187 FILLER_58_898
*9188 FILLER_58_905
*9189 FILLER_58_912
*9190 FILLER_58_919
*9191 FILLER_58_926
*9192 FILLER_58_933
*9193 FILLER_58_940
*9194 FILLER_58_947
*9195 FILLER_58_95
*9196 FILLER_58_954
*9197 FILLER_58_961
*9198 FILLER_58_968
*9199 FILLER_58_975
*9200 FILLER_58_982
*9201 FILLER_58_989
*9202 FILLER_58_996
*9203 FILLER_59_1003
*9204 FILLER_59_1010
*9205 FILLER_59_1017
*9206 FILLER_59_102
*9207 FILLER_59_1024
*9208 FILLER_59_1028
*9209 FILLER_59_109
*9210 FILLER_59_11
*9211 FILLER_59_116
*9212 FILLER_59_120
*9213 FILLER_59_135
*9214 FILLER_59_142
*9215 FILLER_59_149
*9216 FILLER_59_156
*9217 FILLER_59_163
*9218 FILLER_59_170
*9219 FILLER_59_177
*9220 FILLER_59_18
*9221 FILLER_59_184
*9222 FILLER_59_191
*9223 FILLER_59_198
*9224 FILLER_59_205
*9225 FILLER_59_212
*9226 FILLER_59_219
*9227 FILLER_59_226
*9228 FILLER_59_233
*9229 FILLER_59_240
*9230 FILLER_59_247
*9231 FILLER_59_25
*9232 FILLER_59_254
*9233 FILLER_59_261
*9234 FILLER_59_268
*9235 FILLER_59_275
*9236 FILLER_59_282
*9237 FILLER_59_289
*9238 FILLER_59_296
*9239 FILLER_59_303
*9240 FILLER_59_310
*9241 FILLER_59_317
*9242 FILLER_59_32
*9243 FILLER_59_324
*9244 FILLER_59_331
*9245 FILLER_59_338
*9246 FILLER_59_345
*9247 FILLER_59_352
*9248 FILLER_59_359
*9249 FILLER_59_366
*9250 FILLER_59_373
*9251 FILLER_59_380
*9252 FILLER_59_387
*9253 FILLER_59_39
*9254 FILLER_59_394
*9255 FILLER_59_4
*9256 FILLER_59_401
*9257 FILLER_59_408
*9258 FILLER_59_415
*9259 FILLER_59_422
*9260 FILLER_59_429
*9261 FILLER_59_436
*9262 FILLER_59_443
*9263 FILLER_59_450
*9264 FILLER_59_457
*9265 FILLER_59_46
*9266 FILLER_59_464
*9267 FILLER_59_471
*9268 FILLER_59_478
*9269 FILLER_59_485
*9270 FILLER_59_492
*9271 FILLER_59_499
*9272 FILLER_59_506
*9273 FILLER_59_513
*9274 FILLER_59_520
*9275 FILLER_59_527
*9276 FILLER_59_53
*9277 FILLER_59_534
*9278 FILLER_59_541
*9279 FILLER_59_548
*9280 FILLER_59_555
*9281 FILLER_59_562
*9282 FILLER_59_569
*9283 FILLER_59_576
*9284 FILLER_59_583
*9285 FILLER_59_590
*9286 FILLER_59_597
*9287 FILLER_59_60
*9288 FILLER_59_604
*9289 FILLER_59_611
*9290 FILLER_59_618
*9291 FILLER_59_625
*9292 FILLER_59_632
*9293 FILLER_59_639
*9294 FILLER_59_646
*9295 FILLER_59_653
*9296 FILLER_59_660
*9297 FILLER_59_667
*9298 FILLER_59_67
*9299 FILLER_59_674
*9300 FILLER_59_681
*9301 FILLER_59_688
*9302 FILLER_59_695
*9303 FILLER_59_702
*9304 FILLER_59_709
*9305 FILLER_59_716
*9306 FILLER_59_723
*9307 FILLER_59_730
*9308 FILLER_59_737
*9309 FILLER_59_74
*9310 FILLER_59_744
*9311 FILLER_59_751
*9312 FILLER_59_758
*9313 FILLER_59_765
*9314 FILLER_59_772
*9315 FILLER_59_779
*9316 FILLER_59_786
*9317 FILLER_59_793
*9318 FILLER_59_800
*9319 FILLER_59_807
*9320 FILLER_59_81
*9321 FILLER_59_814
*9322 FILLER_59_821
*9323 FILLER_59_828
*9324 FILLER_59_835
*9325 FILLER_59_842
*9326 FILLER_59_849
*9327 FILLER_59_856
*9328 FILLER_59_863
*9329 FILLER_59_870
*9330 FILLER_59_877
*9331 FILLER_59_88
*9332 FILLER_59_884
*9333 FILLER_59_891
*9334 FILLER_59_898
*9335 FILLER_59_905
*9336 FILLER_59_912
*9337 FILLER_59_919
*9338 FILLER_59_926
*9339 FILLER_59_933
*9340 FILLER_59_940
*9341 FILLER_59_947
*9342 FILLER_59_95
*9343 FILLER_59_954
*9344 FILLER_59_961
*9345 FILLER_59_968
*9346 FILLER_59_975
*9347 FILLER_59_982
*9348 FILLER_59_989
*9349 FILLER_59_996
*9350 FILLER_5_0
*9351 FILLER_5_1001
*9352 FILLER_5_1008
*9353 FILLER_5_1015
*9354 FILLER_5_1022
*9355 FILLER_5_105
*9356 FILLER_5_112
*9357 FILLER_5_119
*9358 FILLER_5_126
*9359 FILLER_5_133
*9360 FILLER_5_14
*9361 FILLER_5_140
*9362 FILLER_5_147
*9363 FILLER_5_154
*9364 FILLER_5_161
*9365 FILLER_5_168
*9366 FILLER_5_175
*9367 FILLER_5_182
*9368 FILLER_5_189
*9369 FILLER_5_196
*9370 FILLER_5_203
*9371 FILLER_5_21
*9372 FILLER_5_210
*9373 FILLER_5_217
*9374 FILLER_5_224
*9375 FILLER_5_231
*9376 FILLER_5_238
*9377 FILLER_5_245
*9378 FILLER_5_252
*9379 FILLER_5_259
*9380 FILLER_5_266
*9381 FILLER_5_273
*9382 FILLER_5_28
*9383 FILLER_5_280
*9384 FILLER_5_287
*9385 FILLER_5_294
*9386 FILLER_5_301
*9387 FILLER_5_308
*9388 FILLER_5_315
*9389 FILLER_5_322
*9390 FILLER_5_329
*9391 FILLER_5_336
*9392 FILLER_5_343
*9393 FILLER_5_35
*9394 FILLER_5_350
*9395 FILLER_5_357
*9396 FILLER_5_364
*9397 FILLER_5_371
*9398 FILLER_5_378
*9399 FILLER_5_385
*9400 FILLER_5_392
*9401 FILLER_5_399
*9402 FILLER_5_406
*9403 FILLER_5_413
*9404 FILLER_5_42
*9405 FILLER_5_420
*9406 FILLER_5_427
*9407 FILLER_5_434
*9408 FILLER_5_441
*9409 FILLER_5_448
*9410 FILLER_5_455
*9411 FILLER_5_462
*9412 FILLER_5_469
*9413 FILLER_5_476
*9414 FILLER_5_483
*9415 FILLER_5_49
*9416 FILLER_5_490
*9417 FILLER_5_497
*9418 FILLER_5_504
*9419 FILLER_5_511
*9420 FILLER_5_518
*9421 FILLER_5_525
*9422 FILLER_5_532
*9423 FILLER_5_539
*9424 FILLER_5_546
*9425 FILLER_5_553
*9426 FILLER_5_56
*9427 FILLER_5_560
*9428 FILLER_5_567
*9429 FILLER_5_574
*9430 FILLER_5_581
*9431 FILLER_5_588
*9432 FILLER_5_595
*9433 FILLER_5_602
*9434 FILLER_5_609
*9435 FILLER_5_616
*9436 FILLER_5_623
*9437 FILLER_5_63
*9438 FILLER_5_630
*9439 FILLER_5_637
*9440 FILLER_5_644
*9441 FILLER_5_651
*9442 FILLER_5_658
*9443 FILLER_5_665
*9444 FILLER_5_672
*9445 FILLER_5_679
*9446 FILLER_5_686
*9447 FILLER_5_693
*9448 FILLER_5_7
*9449 FILLER_5_70
*9450 FILLER_5_700
*9451 FILLER_5_707
*9452 FILLER_5_714
*9453 FILLER_5_721
*9454 FILLER_5_728
*9455 FILLER_5_735
*9456 FILLER_5_742
*9457 FILLER_5_749
*9458 FILLER_5_756
*9459 FILLER_5_763
*9460 FILLER_5_77
*9461 FILLER_5_770
*9462 FILLER_5_777
*9463 FILLER_5_784
*9464 FILLER_5_791
*9465 FILLER_5_798
*9466 FILLER_5_805
*9467 FILLER_5_812
*9468 FILLER_5_819
*9469 FILLER_5_826
*9470 FILLER_5_833
*9471 FILLER_5_84
*9472 FILLER_5_840
*9473 FILLER_5_847
*9474 FILLER_5_854
*9475 FILLER_5_861
*9476 FILLER_5_868
*9477 FILLER_5_875
*9478 FILLER_5_882
*9479 FILLER_5_889
*9480 FILLER_5_896
*9481 FILLER_5_903
*9482 FILLER_5_91
*9483 FILLER_5_910
*9484 FILLER_5_917
*9485 FILLER_5_924
*9486 FILLER_5_931
*9487 FILLER_5_938
*9488 FILLER_5_945
*9489 FILLER_5_952
*9490 FILLER_5_959
*9491 FILLER_5_966
*9492 FILLER_5_973
*9493 FILLER_5_98
*9494 FILLER_5_980
*9495 FILLER_5_987
*9496 FILLER_5_994
*9497 FILLER_60_1003
*9498 FILLER_60_1010
*9499 FILLER_60_1017
*9500 FILLER_60_1024
*9501 FILLER_60_1028
*9502 FILLER_60_105
*9503 FILLER_60_11
*9504 FILLER_60_112
*9505 FILLER_60_119
*9506 FILLER_60_126
*9507 FILLER_60_135
*9508 FILLER_60_142
*9509 FILLER_60_149
*9510 FILLER_60_156
*9511 FILLER_60_163
*9512 FILLER_60_170
*9513 FILLER_60_177
*9514 FILLER_60_18
*9515 FILLER_60_184
*9516 FILLER_60_191
*9517 FILLER_60_198
*9518 FILLER_60_205
*9519 FILLER_60_212
*9520 FILLER_60_219
*9521 FILLER_60_226
*9522 FILLER_60_233
*9523 FILLER_60_240
*9524 FILLER_60_247
*9525 FILLER_60_254
*9526 FILLER_60_261
*9527 FILLER_60_268
*9528 FILLER_60_275
*9529 FILLER_60_28
*9530 FILLER_60_282
*9531 FILLER_60_289
*9532 FILLER_60_296
*9533 FILLER_60_303
*9534 FILLER_60_310
*9535 FILLER_60_317
*9536 FILLER_60_324
*9537 FILLER_60_331
*9538 FILLER_60_338
*9539 FILLER_60_345
*9540 FILLER_60_35
*9541 FILLER_60_352
*9542 FILLER_60_359
*9543 FILLER_60_366
*9544 FILLER_60_373
*9545 FILLER_60_380
*9546 FILLER_60_387
*9547 FILLER_60_394
*9548 FILLER_60_4
*9549 FILLER_60_401
*9550 FILLER_60_408
*9551 FILLER_60_415
*9552 FILLER_60_42
*9553 FILLER_60_422
*9554 FILLER_60_429
*9555 FILLER_60_436
*9556 FILLER_60_443
*9557 FILLER_60_450
*9558 FILLER_60_457
*9559 FILLER_60_464
*9560 FILLER_60_471
*9561 FILLER_60_478
*9562 FILLER_60_485
*9563 FILLER_60_49
*9564 FILLER_60_492
*9565 FILLER_60_499
*9566 FILLER_60_506
*9567 FILLER_60_513
*9568 FILLER_60_520
*9569 FILLER_60_527
*9570 FILLER_60_534
*9571 FILLER_60_541
*9572 FILLER_60_548
*9573 FILLER_60_555
*9574 FILLER_60_56
*9575 FILLER_60_562
*9576 FILLER_60_569
*9577 FILLER_60_576
*9578 FILLER_60_583
*9579 FILLER_60_590
*9580 FILLER_60_597
*9581 FILLER_60_604
*9582 FILLER_60_611
*9583 FILLER_60_618
*9584 FILLER_60_625
*9585 FILLER_60_63
*9586 FILLER_60_632
*9587 FILLER_60_639
*9588 FILLER_60_646
*9589 FILLER_60_653
*9590 FILLER_60_660
*9591 FILLER_60_667
*9592 FILLER_60_674
*9593 FILLER_60_681
*9594 FILLER_60_688
*9595 FILLER_60_695
*9596 FILLER_60_70
*9597 FILLER_60_702
*9598 FILLER_60_709
*9599 FILLER_60_716
*9600 FILLER_60_723
*9601 FILLER_60_730
*9602 FILLER_60_737
*9603 FILLER_60_744
*9604 FILLER_60_751
*9605 FILLER_60_758
*9606 FILLER_60_765
*9607 FILLER_60_77
*9608 FILLER_60_772
*9609 FILLER_60_779
*9610 FILLER_60_786
*9611 FILLER_60_793
*9612 FILLER_60_800
*9613 FILLER_60_807
*9614 FILLER_60_814
*9615 FILLER_60_821
*9616 FILLER_60_828
*9617 FILLER_60_835
*9618 FILLER_60_84
*9619 FILLER_60_842
*9620 FILLER_60_849
*9621 FILLER_60_856
*9622 FILLER_60_863
*9623 FILLER_60_870
*9624 FILLER_60_877
*9625 FILLER_60_884
*9626 FILLER_60_891
*9627 FILLER_60_898
*9628 FILLER_60_905
*9629 FILLER_60_91
*9630 FILLER_60_912
*9631 FILLER_60_919
*9632 FILLER_60_926
*9633 FILLER_60_933
*9634 FILLER_60_940
*9635 FILLER_60_947
*9636 FILLER_60_954
*9637 FILLER_60_961
*9638 FILLER_60_968
*9639 FILLER_60_975
*9640 FILLER_60_98
*9641 FILLER_60_982
*9642 FILLER_60_989
*9643 FILLER_60_996
*9644 FILLER_61_0
*9645 FILLER_61_1002
*9646 FILLER_61_1009
*9647 FILLER_61_1016
*9648 FILLER_61_1023
*9649 FILLER_61_1027
*9650 FILLER_61_104
*9651 FILLER_61_113
*9652 FILLER_61_120
*9653 FILLER_61_127
*9654 FILLER_61_134
*9655 FILLER_61_14
*9656 FILLER_61_141
*9657 FILLER_61_148
*9658 FILLER_61_155
*9659 FILLER_61_162
*9660 FILLER_61_169
*9661 FILLER_61_176
*9662 FILLER_61_183
*9663 FILLER_61_190
*9664 FILLER_61_197
*9665 FILLER_61_204
*9666 FILLER_61_21
*9667 FILLER_61_211
*9668 FILLER_61_218
*9669 FILLER_61_225
*9670 FILLER_61_232
*9671 FILLER_61_239
*9672 FILLER_61_246
*9673 FILLER_61_253
*9674 FILLER_61_260
*9675 FILLER_61_267
*9676 FILLER_61_274
*9677 FILLER_61_28
*9678 FILLER_61_281
*9679 FILLER_61_288
*9680 FILLER_61_295
*9681 FILLER_61_302
*9682 FILLER_61_309
*9683 FILLER_61_316
*9684 FILLER_61_323
*9685 FILLER_61_330
*9686 FILLER_61_337
*9687 FILLER_61_344
*9688 FILLER_61_35
*9689 FILLER_61_351
*9690 FILLER_61_358
*9691 FILLER_61_365
*9692 FILLER_61_372
*9693 FILLER_61_379
*9694 FILLER_61_386
*9695 FILLER_61_393
*9696 FILLER_61_400
*9697 FILLER_61_407
*9698 FILLER_61_414
*9699 FILLER_61_42
*9700 FILLER_61_421
*9701 FILLER_61_428
*9702 FILLER_61_435
*9703 FILLER_61_442
*9704 FILLER_61_449
*9705 FILLER_61_456
*9706 FILLER_61_463
*9707 FILLER_61_470
*9708 FILLER_61_477
*9709 FILLER_61_484
*9710 FILLER_61_49
*9711 FILLER_61_491
*9712 FILLER_61_498
*9713 FILLER_61_505
*9714 FILLER_61_512
*9715 FILLER_61_519
*9716 FILLER_61_526
*9717 FILLER_61_533
*9718 FILLER_61_540
*9719 FILLER_61_547
*9720 FILLER_61_554
*9721 FILLER_61_56
*9722 FILLER_61_561
*9723 FILLER_61_568
*9724 FILLER_61_575
*9725 FILLER_61_582
*9726 FILLER_61_589
*9727 FILLER_61_596
*9728 FILLER_61_603
*9729 FILLER_61_610
*9730 FILLER_61_617
*9731 FILLER_61_62
*9732 FILLER_61_624
*9733 FILLER_61_631
*9734 FILLER_61_638
*9735 FILLER_61_645
*9736 FILLER_61_652
*9737 FILLER_61_659
*9738 FILLER_61_666
*9739 FILLER_61_673
*9740 FILLER_61_680
*9741 FILLER_61_687
*9742 FILLER_61_69
*9743 FILLER_61_694
*9744 FILLER_61_7
*9745 FILLER_61_701
*9746 FILLER_61_708
*9747 FILLER_61_715
*9748 FILLER_61_722
*9749 FILLER_61_729
*9750 FILLER_61_736
*9751 FILLER_61_743
*9752 FILLER_61_750
*9753 FILLER_61_757
*9754 FILLER_61_76
*9755 FILLER_61_764
*9756 FILLER_61_771
*9757 FILLER_61_778
*9758 FILLER_61_785
*9759 FILLER_61_792
*9760 FILLER_61_799
*9761 FILLER_61_806
*9762 FILLER_61_813
*9763 FILLER_61_820
*9764 FILLER_61_827
*9765 FILLER_61_83
*9766 FILLER_61_834
*9767 FILLER_61_841
*9768 FILLER_61_848
*9769 FILLER_61_855
*9770 FILLER_61_862
*9771 FILLER_61_869
*9772 FILLER_61_876
*9773 FILLER_61_883
*9774 FILLER_61_890
*9775 FILLER_61_897
*9776 FILLER_61_90
*9777 FILLER_61_904
*9778 FILLER_61_911
*9779 FILLER_61_918
*9780 FILLER_61_925
*9781 FILLER_61_932
*9782 FILLER_61_939
*9783 FILLER_61_946
*9784 FILLER_61_953
*9785 FILLER_61_960
*9786 FILLER_61_967
*9787 FILLER_61_97
*9788 FILLER_61_974
*9789 FILLER_61_981
*9790 FILLER_61_988
*9791 FILLER_61_995
*9792 FILLER_62_1001
*9793 FILLER_62_1008
*9794 FILLER_62_1015
*9795 FILLER_62_1022
*9796 FILLER_62_105
*9797 FILLER_62_11
*9798 FILLER_62_112
*9799 FILLER_62_119
*9800 FILLER_62_126
*9801 FILLER_62_133
*9802 FILLER_62_140
*9803 FILLER_62_147
*9804 FILLER_62_154
*9805 FILLER_62_161
*9806 FILLER_62_168
*9807 FILLER_62_175
*9808 FILLER_62_18
*9809 FILLER_62_182
*9810 FILLER_62_189
*9811 FILLER_62_196
*9812 FILLER_62_203
*9813 FILLER_62_210
*9814 FILLER_62_217
*9815 FILLER_62_224
*9816 FILLER_62_231
*9817 FILLER_62_238
*9818 FILLER_62_245
*9819 FILLER_62_25
*9820 FILLER_62_252
*9821 FILLER_62_259
*9822 FILLER_62_266
*9823 FILLER_62_273
*9824 FILLER_62_280
*9825 FILLER_62_287
*9826 FILLER_62_294
*9827 FILLER_62_301
*9828 FILLER_62_308
*9829 FILLER_62_31
*9830 FILLER_62_315
*9831 FILLER_62_322
*9832 FILLER_62_329
*9833 FILLER_62_336
*9834 FILLER_62_343
*9835 FILLER_62_350
*9836 FILLER_62_357
*9837 FILLER_62_364
*9838 FILLER_62_371
*9839 FILLER_62_378
*9840 FILLER_62_38
*9841 FILLER_62_385
*9842 FILLER_62_392
*9843 FILLER_62_399
*9844 FILLER_62_4
*9845 FILLER_62_40
*9846 FILLER_62_406
*9847 FILLER_62_413
*9848 FILLER_62_420
*9849 FILLER_62_427
*9850 FILLER_62_434
*9851 FILLER_62_441
*9852 FILLER_62_448
*9853 FILLER_62_455
*9854 FILLER_62_462
*9855 FILLER_62_469
*9856 FILLER_62_476
*9857 FILLER_62_483
*9858 FILLER_62_490
*9859 FILLER_62_497
*9860 FILLER_62_504
*9861 FILLER_62_511
*9862 FILLER_62_518
*9863 FILLER_62_525
*9864 FILLER_62_532
*9865 FILLER_62_539
*9866 FILLER_62_546
*9867 FILLER_62_553
*9868 FILLER_62_56
*9869 FILLER_62_560
*9870 FILLER_62_567
*9871 FILLER_62_574
*9872 FILLER_62_581
*9873 FILLER_62_588
*9874 FILLER_62_595
*9875 FILLER_62_602
*9876 FILLER_62_609
*9877 FILLER_62_616
*9878 FILLER_62_623
*9879 FILLER_62_630
*9880 FILLER_62_637
*9881 FILLER_62_644
*9882 FILLER_62_651
*9883 FILLER_62_658
*9884 FILLER_62_665
*9885 FILLER_62_672
*9886 FILLER_62_679
*9887 FILLER_62_686
*9888 FILLER_62_693
*9889 FILLER_62_70
*9890 FILLER_62_700
*9891 FILLER_62_707
*9892 FILLER_62_714
*9893 FILLER_62_721
*9894 FILLER_62_728
*9895 FILLER_62_735
*9896 FILLER_62_742
*9897 FILLER_62_749
*9898 FILLER_62_756
*9899 FILLER_62_763
*9900 FILLER_62_77
*9901 FILLER_62_770
*9902 FILLER_62_777
*9903 FILLER_62_784
*9904 FILLER_62_791
*9905 FILLER_62_798
*9906 FILLER_62_805
*9907 FILLER_62_812
*9908 FILLER_62_819
*9909 FILLER_62_826
*9910 FILLER_62_833
*9911 FILLER_62_84
*9912 FILLER_62_840
*9913 FILLER_62_847
*9914 FILLER_62_854
*9915 FILLER_62_861
*9916 FILLER_62_868
*9917 FILLER_62_875
*9918 FILLER_62_882
*9919 FILLER_62_889
*9920 FILLER_62_896
*9921 FILLER_62_903
*9922 FILLER_62_91
*9923 FILLER_62_910
*9924 FILLER_62_917
*9925 FILLER_62_924
*9926 FILLER_62_931
*9927 FILLER_62_938
*9928 FILLER_62_945
*9929 FILLER_62_952
*9930 FILLER_62_959
*9931 FILLER_62_966
*9932 FILLER_62_973
*9933 FILLER_62_98
*9934 FILLER_62_980
*9935 FILLER_62_987
*9936 FILLER_62_994
*9937 FILLER_63_1006
*9938 FILLER_63_1013
*9939 FILLER_63_102
*9940 FILLER_63_1020
*9941 FILLER_63_1027
*9942 FILLER_63_108
*9943 FILLER_63_11
*9944 FILLER_63_115
*9945 FILLER_63_124
*9946 FILLER_63_131
*9947 FILLER_63_138
*9948 FILLER_63_145
*9949 FILLER_63_152
*9950 FILLER_63_159
*9951 FILLER_63_166
*9952 FILLER_63_173
*9953 FILLER_63_18
*9954 FILLER_63_180
*9955 FILLER_63_187
*9956 FILLER_63_194
*9957 FILLER_63_201
*9958 FILLER_63_208
*9959 FILLER_63_215
*9960 FILLER_63_222
*9961 FILLER_63_229
*9962 FILLER_63_236
*9963 FILLER_63_243
*9964 FILLER_63_25
*9965 FILLER_63_250
*9966 FILLER_63_257
*9967 FILLER_63_264
*9968 FILLER_63_271
*9969 FILLER_63_278
*9970 FILLER_63_285
*9971 FILLER_63_292
*9972 FILLER_63_299
*9973 FILLER_63_306
*9974 FILLER_63_313
*9975 FILLER_63_32
*9976 FILLER_63_320
*9977 FILLER_63_327
*9978 FILLER_63_334
*9979 FILLER_63_341
*9980 FILLER_63_348
*9981 FILLER_63_355
*9982 FILLER_63_362
*9983 FILLER_63_369
*9984 FILLER_63_376
*9985 FILLER_63_383
*9986 FILLER_63_39
*9987 FILLER_63_390
*9988 FILLER_63_397
*9989 FILLER_63_4
*9990 FILLER_63_404
*9991 FILLER_63_411
*9992 FILLER_63_418
*9993 FILLER_63_425
*9994 FILLER_63_432
*9995 FILLER_63_439
*9996 FILLER_63_446
*9997 FILLER_63_453
*9998 FILLER_63_46
*9999 FILLER_63_460
*10000 FILLER_63_467
*10001 FILLER_63_474
*10002 FILLER_63_481
*10003 FILLER_63_488
*10004 FILLER_63_495
*10005 FILLER_63_502
*10006 FILLER_63_509
*10007 FILLER_63_516
*10008 FILLER_63_523
*10009 FILLER_63_53
*10010 FILLER_63_530
*10011 FILLER_63_537
*10012 FILLER_63_544
*10013 FILLER_63_551
*10014 FILLER_63_558
*10015 FILLER_63_565
*10016 FILLER_63_572
*10017 FILLER_63_579
*10018 FILLER_63_586
*10019 FILLER_63_593
*10020 FILLER_63_60
*10021 FILLER_63_600
*10022 FILLER_63_607
*10023 FILLER_63_614
*10024 FILLER_63_621
*10025 FILLER_63_628
*10026 FILLER_63_635
*10027 FILLER_63_642
*10028 FILLER_63_649
*10029 FILLER_63_656
*10030 FILLER_63_663
*10031 FILLER_63_67
*10032 FILLER_63_670
*10033 FILLER_63_677
*10034 FILLER_63_684
*10035 FILLER_63_691
*10036 FILLER_63_698
*10037 FILLER_63_705
*10038 FILLER_63_712
*10039 FILLER_63_719
*10040 FILLER_63_726
*10041 FILLER_63_733
*10042 FILLER_63_74
*10043 FILLER_63_740
*10044 FILLER_63_747
*10045 FILLER_63_754
*10046 FILLER_63_761
*10047 FILLER_63_768
*10048 FILLER_63_775
*10049 FILLER_63_782
*10050 FILLER_63_789
*10051 FILLER_63_796
*10052 FILLER_63_803
*10053 FILLER_63_81
*10054 FILLER_63_810
*10055 FILLER_63_817
*10056 FILLER_63_824
*10057 FILLER_63_831
*10058 FILLER_63_838
*10059 FILLER_63_845
*10060 FILLER_63_852
*10061 FILLER_63_859
*10062 FILLER_63_866
*10063 FILLER_63_873
*10064 FILLER_63_88
*10065 FILLER_63_880
*10066 FILLER_63_887
*10067 FILLER_63_894
*10068 FILLER_63_901
*10069 FILLER_63_908
*10070 FILLER_63_915
*10071 FILLER_63_922
*10072 FILLER_63_929
*10073 FILLER_63_936
*10074 FILLER_63_943
*10075 FILLER_63_95
*10076 FILLER_63_950
*10077 FILLER_63_957
*10078 FILLER_63_964
*10079 FILLER_63_971
*10080 FILLER_63_978
*10081 FILLER_63_985
*10082 FILLER_63_992
*10083 FILLER_63_999
*10084 FILLER_64_1002
*10085 FILLER_64_1009
*10086 FILLER_64_1016
*10087 FILLER_64_102
*10088 FILLER_64_1023
*10089 FILLER_64_1027
*10090 FILLER_64_109
*10091 FILLER_64_11
*10092 FILLER_64_127
*10093 FILLER_64_134
*10094 FILLER_64_141
*10095 FILLER_64_148
*10096 FILLER_64_155
*10097 FILLER_64_162
*10098 FILLER_64_169
*10099 FILLER_64_176
*10100 FILLER_64_18
*10101 FILLER_64_183
*10102 FILLER_64_190
*10103 FILLER_64_197
*10104 FILLER_64_204
*10105 FILLER_64_211
*10106 FILLER_64_218
*10107 FILLER_64_225
*10108 FILLER_64_232
*10109 FILLER_64_239
*10110 FILLER_64_246
*10111 FILLER_64_25
*10112 FILLER_64_253
*10113 FILLER_64_260
*10114 FILLER_64_267
*10115 FILLER_64_274
*10116 FILLER_64_281
*10117 FILLER_64_288
*10118 FILLER_64_295
*10119 FILLER_64_302
*10120 FILLER_64_309
*10121 FILLER_64_316
*10122 FILLER_64_32
*10123 FILLER_64_323
*10124 FILLER_64_330
*10125 FILLER_64_337
*10126 FILLER_64_344
*10127 FILLER_64_351
*10128 FILLER_64_358
*10129 FILLER_64_365
*10130 FILLER_64_372
*10131 FILLER_64_379
*10132 FILLER_64_386
*10133 FILLER_64_39
*10134 FILLER_64_393
*10135 FILLER_64_4
*10136 FILLER_64_400
*10137 FILLER_64_407
*10138 FILLER_64_414
*10139 FILLER_64_421
*10140 FILLER_64_428
*10141 FILLER_64_435
*10142 FILLER_64_442
*10143 FILLER_64_449
*10144 FILLER_64_456
*10145 FILLER_64_46
*10146 FILLER_64_463
*10147 FILLER_64_470
*10148 FILLER_64_477
*10149 FILLER_64_484
*10150 FILLER_64_491
*10151 FILLER_64_498
*10152 FILLER_64_505
*10153 FILLER_64_512
*10154 FILLER_64_519
*10155 FILLER_64_526
*10156 FILLER_64_53
*10157 FILLER_64_533
*10158 FILLER_64_540
*10159 FILLER_64_547
*10160 FILLER_64_554
*10161 FILLER_64_561
*10162 FILLER_64_568
*10163 FILLER_64_575
*10164 FILLER_64_582
*10165 FILLER_64_589
*10166 FILLER_64_596
*10167 FILLER_64_60
*10168 FILLER_64_603
*10169 FILLER_64_610
*10170 FILLER_64_617
*10171 FILLER_64_624
*10172 FILLER_64_631
*10173 FILLER_64_638
*10174 FILLER_64_645
*10175 FILLER_64_652
*10176 FILLER_64_659
*10177 FILLER_64_666
*10178 FILLER_64_67
*10179 FILLER_64_673
*10180 FILLER_64_680
*10181 FILLER_64_687
*10182 FILLER_64_694
*10183 FILLER_64_701
*10184 FILLER_64_708
*10185 FILLER_64_715
*10186 FILLER_64_722
*10187 FILLER_64_729
*10188 FILLER_64_736
*10189 FILLER_64_74
*10190 FILLER_64_743
*10191 FILLER_64_750
*10192 FILLER_64_757
*10193 FILLER_64_764
*10194 FILLER_64_771
*10195 FILLER_64_778
*10196 FILLER_64_785
*10197 FILLER_64_792
*10198 FILLER_64_799
*10199 FILLER_64_806
*10200 FILLER_64_81
*10201 FILLER_64_813
*10202 FILLER_64_820
*10203 FILLER_64_827
*10204 FILLER_64_834
*10205 FILLER_64_841
*10206 FILLER_64_848
*10207 FILLER_64_855
*10208 FILLER_64_862
*10209 FILLER_64_869
*10210 FILLER_64_876
*10211 FILLER_64_88
*10212 FILLER_64_883
*10213 FILLER_64_890
*10214 FILLER_64_897
*10215 FILLER_64_904
*10216 FILLER_64_911
*10217 FILLER_64_918
*10218 FILLER_64_925
*10219 FILLER_64_932
*10220 FILLER_64_939
*10221 FILLER_64_946
*10222 FILLER_64_95
*10223 FILLER_64_953
*10224 FILLER_64_960
*10225 FILLER_64_967
*10226 FILLER_64_974
*10227 FILLER_64_981
*10228 FILLER_64_988
*10229 FILLER_64_995
*10230 FILLER_65_1006
*10231 FILLER_65_1013
*10232 FILLER_65_1020
*10233 FILLER_65_1027
*10234 FILLER_65_106
*10235 FILLER_65_11
*10236 FILLER_65_113
*10237 FILLER_65_120
*10238 FILLER_65_131
*10239 FILLER_65_138
*10240 FILLER_65_145
*10241 FILLER_65_152
*10242 FILLER_65_159
*10243 FILLER_65_166
*10244 FILLER_65_173
*10245 FILLER_65_180
*10246 FILLER_65_187
*10247 FILLER_65_194
*10248 FILLER_65_201
*10249 FILLER_65_208
*10250 FILLER_65_215
*10251 FILLER_65_222
*10252 FILLER_65_229
*10253 FILLER_65_236
*10254 FILLER_65_243
*10255 FILLER_65_250
*10256 FILLER_65_257
*10257 FILLER_65_264
*10258 FILLER_65_271
*10259 FILLER_65_278
*10260 FILLER_65_285
*10261 FILLER_65_29
*10262 FILLER_65_292
*10263 FILLER_65_299
*10264 FILLER_65_306
*10265 FILLER_65_313
*10266 FILLER_65_320
*10267 FILLER_65_327
*10268 FILLER_65_334
*10269 FILLER_65_341
*10270 FILLER_65_348
*10271 FILLER_65_355
*10272 FILLER_65_36
*10273 FILLER_65_362
*10274 FILLER_65_369
*10275 FILLER_65_376
*10276 FILLER_65_383
*10277 FILLER_65_390
*10278 FILLER_65_397
*10279 FILLER_65_4
*10280 FILLER_65_404
*10281 FILLER_65_411
*10282 FILLER_65_418
*10283 FILLER_65_425
*10284 FILLER_65_43
*10285 FILLER_65_432
*10286 FILLER_65_439
*10287 FILLER_65_446
*10288 FILLER_65_453
*10289 FILLER_65_460
*10290 FILLER_65_467
*10291 FILLER_65_474
*10292 FILLER_65_481
*10293 FILLER_65_488
*10294 FILLER_65_495
*10295 FILLER_65_50
*10296 FILLER_65_502
*10297 FILLER_65_509
*10298 FILLER_65_516
*10299 FILLER_65_523
*10300 FILLER_65_530
*10301 FILLER_65_537
*10302 FILLER_65_544
*10303 FILLER_65_551
*10304 FILLER_65_558
*10305 FILLER_65_565
*10306 FILLER_65_57
*10307 FILLER_65_572
*10308 FILLER_65_579
*10309 FILLER_65_586
*10310 FILLER_65_593
*10311 FILLER_65_600
*10312 FILLER_65_607
*10313 FILLER_65_614
*10314 FILLER_65_621
*10315 FILLER_65_628
*10316 FILLER_65_635
*10317 FILLER_65_64
*10318 FILLER_65_642
*10319 FILLER_65_649
*10320 FILLER_65_656
*10321 FILLER_65_663
*10322 FILLER_65_670
*10323 FILLER_65_677
*10324 FILLER_65_684
*10325 FILLER_65_691
*10326 FILLER_65_698
*10327 FILLER_65_705
*10328 FILLER_65_71
*10329 FILLER_65_712
*10330 FILLER_65_719
*10331 FILLER_65_726
*10332 FILLER_65_733
*10333 FILLER_65_740
*10334 FILLER_65_747
*10335 FILLER_65_754
*10336 FILLER_65_761
*10337 FILLER_65_768
*10338 FILLER_65_775
*10339 FILLER_65_78
*10340 FILLER_65_782
*10341 FILLER_65_789
*10342 FILLER_65_796
*10343 FILLER_65_803
*10344 FILLER_65_810
*10345 FILLER_65_817
*10346 FILLER_65_824
*10347 FILLER_65_831
*10348 FILLER_65_838
*10349 FILLER_65_845
*10350 FILLER_65_85
*10351 FILLER_65_852
*10352 FILLER_65_859
*10353 FILLER_65_866
*10354 FILLER_65_873
*10355 FILLER_65_880
*10356 FILLER_65_887
*10357 FILLER_65_894
*10358 FILLER_65_901
*10359 FILLER_65_908
*10360 FILLER_65_915
*10361 FILLER_65_92
*10362 FILLER_65_922
*10363 FILLER_65_929
*10364 FILLER_65_936
*10365 FILLER_65_943
*10366 FILLER_65_950
*10367 FILLER_65_957
*10368 FILLER_65_964
*10369 FILLER_65_971
*10370 FILLER_65_978
*10371 FILLER_65_985
*10372 FILLER_65_99
*10373 FILLER_65_992
*10374 FILLER_65_999
*10375 FILLER_66_100
*10376 FILLER_66_1003
*10377 FILLER_66_1010
*10378 FILLER_66_1017
*10379 FILLER_66_1024
*10380 FILLER_66_1028
*10381 FILLER_66_107
*10382 FILLER_66_11
*10383 FILLER_66_114
*10384 FILLER_66_121
*10385 FILLER_66_128
*10386 FILLER_66_135
*10387 FILLER_66_142
*10388 FILLER_66_149
*10389 FILLER_66_156
*10390 FILLER_66_163
*10391 FILLER_66_170
*10392 FILLER_66_177
*10393 FILLER_66_18
*10394 FILLER_66_184
*10395 FILLER_66_191
*10396 FILLER_66_198
*10397 FILLER_66_205
*10398 FILLER_66_212
*10399 FILLER_66_219
*10400 FILLER_66_226
*10401 FILLER_66_233
*10402 FILLER_66_240
*10403 FILLER_66_247
*10404 FILLER_66_25
*10405 FILLER_66_254
*10406 FILLER_66_261
*10407 FILLER_66_268
*10408 FILLER_66_275
*10409 FILLER_66_282
*10410 FILLER_66_289
*10411 FILLER_66_296
*10412 FILLER_66_303
*10413 FILLER_66_310
*10414 FILLER_66_317
*10415 FILLER_66_32
*10416 FILLER_66_324
*10417 FILLER_66_331
*10418 FILLER_66_338
*10419 FILLER_66_345
*10420 FILLER_66_352
*10421 FILLER_66_359
*10422 FILLER_66_366
*10423 FILLER_66_373
*10424 FILLER_66_380
*10425 FILLER_66_387
*10426 FILLER_66_39
*10427 FILLER_66_394
*10428 FILLER_66_4
*10429 FILLER_66_401
*10430 FILLER_66_408
*10431 FILLER_66_415
*10432 FILLER_66_422
*10433 FILLER_66_429
*10434 FILLER_66_436
*10435 FILLER_66_443
*10436 FILLER_66_450
*10437 FILLER_66_457
*10438 FILLER_66_46
*10439 FILLER_66_464
*10440 FILLER_66_471
*10441 FILLER_66_478
*10442 FILLER_66_485
*10443 FILLER_66_492
*10444 FILLER_66_499
*10445 FILLER_66_506
*10446 FILLER_66_513
*10447 FILLER_66_520
*10448 FILLER_66_527
*10449 FILLER_66_53
*10450 FILLER_66_534
*10451 FILLER_66_541
*10452 FILLER_66_548
*10453 FILLER_66_555
*10454 FILLER_66_562
*10455 FILLER_66_569
*10456 FILLER_66_576
*10457 FILLER_66_583
*10458 FILLER_66_590
*10459 FILLER_66_597
*10460 FILLER_66_60
*10461 FILLER_66_604
*10462 FILLER_66_611
*10463 FILLER_66_618
*10464 FILLER_66_625
*10465 FILLER_66_632
*10466 FILLER_66_639
*10467 FILLER_66_646
*10468 FILLER_66_653
*10469 FILLER_66_660
*10470 FILLER_66_667
*10471 FILLER_66_674
*10472 FILLER_66_681
*10473 FILLER_66_688
*10474 FILLER_66_695
*10475 FILLER_66_702
*10476 FILLER_66_709
*10477 FILLER_66_716
*10478 FILLER_66_72
*10479 FILLER_66_723
*10480 FILLER_66_730
*10481 FILLER_66_737
*10482 FILLER_66_744
*10483 FILLER_66_751
*10484 FILLER_66_758
*10485 FILLER_66_765
*10486 FILLER_66_772
*10487 FILLER_66_779
*10488 FILLER_66_786
*10489 FILLER_66_79
*10490 FILLER_66_793
*10491 FILLER_66_800
*10492 FILLER_66_807
*10493 FILLER_66_814
*10494 FILLER_66_821
*10495 FILLER_66_828
*10496 FILLER_66_835
*10497 FILLER_66_842
*10498 FILLER_66_849
*10499 FILLER_66_856
*10500 FILLER_66_86
*10501 FILLER_66_863
*10502 FILLER_66_870
*10503 FILLER_66_877
*10504 FILLER_66_884
*10505 FILLER_66_891
*10506 FILLER_66_898
*10507 FILLER_66_905
*10508 FILLER_66_912
*10509 FILLER_66_919
*10510 FILLER_66_926
*10511 FILLER_66_93
*10512 FILLER_66_933
*10513 FILLER_66_940
*10514 FILLER_66_947
*10515 FILLER_66_954
*10516 FILLER_66_961
*10517 FILLER_66_968
*10518 FILLER_66_975
*10519 FILLER_66_982
*10520 FILLER_66_989
*10521 FILLER_66_996
*10522 FILLER_67_1005
*10523 FILLER_67_1012
*10524 FILLER_67_1019
*10525 FILLER_67_102
*10526 FILLER_67_1026
*10527 FILLER_67_1028
*10528 FILLER_67_109
*10529 FILLER_67_11
*10530 FILLER_67_116
*10531 FILLER_67_123
*10532 FILLER_67_130
*10533 FILLER_67_137
*10534 FILLER_67_144
*10535 FILLER_67_151
*10536 FILLER_67_158
*10537 FILLER_67_165
*10538 FILLER_67_172
*10539 FILLER_67_179
*10540 FILLER_67_18
*10541 FILLER_67_186
*10542 FILLER_67_193
*10543 FILLER_67_200
*10544 FILLER_67_207
*10545 FILLER_67_214
*10546 FILLER_67_221
*10547 FILLER_67_228
*10548 FILLER_67_235
*10549 FILLER_67_242
*10550 FILLER_67_249
*10551 FILLER_67_25
*10552 FILLER_67_256
*10553 FILLER_67_263
*10554 FILLER_67_270
*10555 FILLER_67_277
*10556 FILLER_67_284
*10557 FILLER_67_291
*10558 FILLER_67_298
*10559 FILLER_67_305
*10560 FILLER_67_312
*10561 FILLER_67_319
*10562 FILLER_67_32
*10563 FILLER_67_326
*10564 FILLER_67_333
*10565 FILLER_67_340
*10566 FILLER_67_347
*10567 FILLER_67_354
*10568 FILLER_67_361
*10569 FILLER_67_368
*10570 FILLER_67_375
*10571 FILLER_67_382
*10572 FILLER_67_389
*10573 FILLER_67_39
*10574 FILLER_67_396
*10575 FILLER_67_4
*10576 FILLER_67_403
*10577 FILLER_67_410
*10578 FILLER_67_417
*10579 FILLER_67_424
*10580 FILLER_67_431
*10581 FILLER_67_438
*10582 FILLER_67_445
*10583 FILLER_67_452
*10584 FILLER_67_459
*10585 FILLER_67_46
*10586 FILLER_67_466
*10587 FILLER_67_473
*10588 FILLER_67_480
*10589 FILLER_67_487
*10590 FILLER_67_494
*10591 FILLER_67_501
*10592 FILLER_67_508
*10593 FILLER_67_515
*10594 FILLER_67_522
*10595 FILLER_67_529
*10596 FILLER_67_53
*10597 FILLER_67_536
*10598 FILLER_67_543
*10599 FILLER_67_550
*10600 FILLER_67_557
*10601 FILLER_67_564
*10602 FILLER_67_571
*10603 FILLER_67_578
*10604 FILLER_67_585
*10605 FILLER_67_592
*10606 FILLER_67_599
*10607 FILLER_67_60
*10608 FILLER_67_606
*10609 FILLER_67_613
*10610 FILLER_67_620
*10611 FILLER_67_627
*10612 FILLER_67_634
*10613 FILLER_67_641
*10614 FILLER_67_648
*10615 FILLER_67_655
*10616 FILLER_67_662
*10617 FILLER_67_669
*10618 FILLER_67_67
*10619 FILLER_67_676
*10620 FILLER_67_683
*10621 FILLER_67_690
*10622 FILLER_67_697
*10623 FILLER_67_704
*10624 FILLER_67_711
*10625 FILLER_67_718
*10626 FILLER_67_725
*10627 FILLER_67_732
*10628 FILLER_67_739
*10629 FILLER_67_74
*10630 FILLER_67_746
*10631 FILLER_67_753
*10632 FILLER_67_760
*10633 FILLER_67_767
*10634 FILLER_67_774
*10635 FILLER_67_781
*10636 FILLER_67_788
*10637 FILLER_67_795
*10638 FILLER_67_802
*10639 FILLER_67_809
*10640 FILLER_67_81
*10641 FILLER_67_816
*10642 FILLER_67_823
*10643 FILLER_67_830
*10644 FILLER_67_837
*10645 FILLER_67_844
*10646 FILLER_67_851
*10647 FILLER_67_858
*10648 FILLER_67_865
*10649 FILLER_67_872
*10650 FILLER_67_879
*10651 FILLER_67_88
*10652 FILLER_67_886
*10653 FILLER_67_893
*10654 FILLER_67_900
*10655 FILLER_67_907
*10656 FILLER_67_914
*10657 FILLER_67_921
*10658 FILLER_67_928
*10659 FILLER_67_935
*10660 FILLER_67_942
*10661 FILLER_67_949
*10662 FILLER_67_95
*10663 FILLER_67_956
*10664 FILLER_67_963
*10665 FILLER_67_970
*10666 FILLER_67_977
*10667 FILLER_67_984
*10668 FILLER_67_991
*10669 FILLER_67_998
*10670 FILLER_68_1001
*10671 FILLER_68_1008
*10672 FILLER_68_1015
*10673 FILLER_68_1022
*10674 FILLER_68_106
*10675 FILLER_68_11
*10676 FILLER_68_118
*10677 FILLER_68_125
*10678 FILLER_68_133
*10679 FILLER_68_140
*10680 FILLER_68_147
*10681 FILLER_68_154
*10682 FILLER_68_161
*10683 FILLER_68_168
*10684 FILLER_68_175
*10685 FILLER_68_18
*10686 FILLER_68_182
*10687 FILLER_68_189
*10688 FILLER_68_196
*10689 FILLER_68_203
*10690 FILLER_68_210
*10691 FILLER_68_217
*10692 FILLER_68_224
*10693 FILLER_68_231
*10694 FILLER_68_238
*10695 FILLER_68_245
*10696 FILLER_68_25
*10697 FILLER_68_252
*10698 FILLER_68_259
*10699 FILLER_68_266
*10700 FILLER_68_273
*10701 FILLER_68_280
*10702 FILLER_68_287
*10703 FILLER_68_294
*10704 FILLER_68_301
*10705 FILLER_68_308
*10706 FILLER_68_315
*10707 FILLER_68_32
*10708 FILLER_68_322
*10709 FILLER_68_329
*10710 FILLER_68_336
*10711 FILLER_68_343
*10712 FILLER_68_350
*10713 FILLER_68_357
*10714 FILLER_68_364
*10715 FILLER_68_371
*10716 FILLER_68_378
*10717 FILLER_68_385
*10718 FILLER_68_39
*10719 FILLER_68_392
*10720 FILLER_68_399
*10721 FILLER_68_4
*10722 FILLER_68_406
*10723 FILLER_68_413
*10724 FILLER_68_420
*10725 FILLER_68_427
*10726 FILLER_68_434
*10727 FILLER_68_441
*10728 FILLER_68_448
*10729 FILLER_68_455
*10730 FILLER_68_462
*10731 FILLER_68_469
*10732 FILLER_68_476
*10733 FILLER_68_48
*10734 FILLER_68_483
*10735 FILLER_68_490
*10736 FILLER_68_497
*10737 FILLER_68_504
*10738 FILLER_68_511
*10739 FILLER_68_518
*10740 FILLER_68_525
*10741 FILLER_68_532
*10742 FILLER_68_539
*10743 FILLER_68_546
*10744 FILLER_68_55
*10745 FILLER_68_553
*10746 FILLER_68_560
*10747 FILLER_68_567
*10748 FILLER_68_574
*10749 FILLER_68_581
*10750 FILLER_68_588
*10751 FILLER_68_595
*10752 FILLER_68_602
*10753 FILLER_68_609
*10754 FILLER_68_616
*10755 FILLER_68_62
*10756 FILLER_68_623
*10757 FILLER_68_630
*10758 FILLER_68_637
*10759 FILLER_68_644
*10760 FILLER_68_651
*10761 FILLER_68_658
*10762 FILLER_68_665
*10763 FILLER_68_672
*10764 FILLER_68_679
*10765 FILLER_68_686
*10766 FILLER_68_693
*10767 FILLER_68_700
*10768 FILLER_68_707
*10769 FILLER_68_71
*10770 FILLER_68_714
*10771 FILLER_68_721
*10772 FILLER_68_728
*10773 FILLER_68_735
*10774 FILLER_68_742
*10775 FILLER_68_749
*10776 FILLER_68_756
*10777 FILLER_68_763
*10778 FILLER_68_770
*10779 FILLER_68_777
*10780 FILLER_68_78
*10781 FILLER_68_784
*10782 FILLER_68_791
*10783 FILLER_68_798
*10784 FILLER_68_805
*10785 FILLER_68_812
*10786 FILLER_68_819
*10787 FILLER_68_826
*10788 FILLER_68_833
*10789 FILLER_68_840
*10790 FILLER_68_847
*10791 FILLER_68_85
*10792 FILLER_68_854
*10793 FILLER_68_861
*10794 FILLER_68_868
*10795 FILLER_68_875
*10796 FILLER_68_882
*10797 FILLER_68_889
*10798 FILLER_68_896
*10799 FILLER_68_903
*10800 FILLER_68_910
*10801 FILLER_68_917
*10802 FILLER_68_92
*10803 FILLER_68_924
*10804 FILLER_68_931
*10805 FILLER_68_938
*10806 FILLER_68_945
*10807 FILLER_68_952
*10808 FILLER_68_959
*10809 FILLER_68_966
*10810 FILLER_68_973
*10811 FILLER_68_980
*10812 FILLER_68_987
*10813 FILLER_68_99
*10814 FILLER_68_994
*10815 FILLER_69_100
*10816 FILLER_69_1005
*10817 FILLER_69_1012
*10818 FILLER_69_1019
*10819 FILLER_69_1026
*10820 FILLER_69_1028
*10821 FILLER_69_107
*10822 FILLER_69_11
*10823 FILLER_69_114
*10824 FILLER_69_119
*10825 FILLER_69_123
*10826 FILLER_69_137
*10827 FILLER_69_144
*10828 FILLER_69_151
*10829 FILLER_69_158
*10830 FILLER_69_165
*10831 FILLER_69_172
*10832 FILLER_69_179
*10833 FILLER_69_18
*10834 FILLER_69_186
*10835 FILLER_69_193
*10836 FILLER_69_200
*10837 FILLER_69_207
*10838 FILLER_69_214
*10839 FILLER_69_221
*10840 FILLER_69_228
*10841 FILLER_69_235
*10842 FILLER_69_242
*10843 FILLER_69_249
*10844 FILLER_69_25
*10845 FILLER_69_256
*10846 FILLER_69_263
*10847 FILLER_69_270
*10848 FILLER_69_277
*10849 FILLER_69_284
*10850 FILLER_69_291
*10851 FILLER_69_298
*10852 FILLER_69_305
*10853 FILLER_69_312
*10854 FILLER_69_319
*10855 FILLER_69_32
*10856 FILLER_69_326
*10857 FILLER_69_333
*10858 FILLER_69_340
*10859 FILLER_69_347
*10860 FILLER_69_354
*10861 FILLER_69_361
*10862 FILLER_69_368
*10863 FILLER_69_375
*10864 FILLER_69_382
*10865 FILLER_69_389
*10866 FILLER_69_39
*10867 FILLER_69_396
*10868 FILLER_69_4
*10869 FILLER_69_403
*10870 FILLER_69_410
*10871 FILLER_69_417
*10872 FILLER_69_424
*10873 FILLER_69_431
*10874 FILLER_69_438
*10875 FILLER_69_445
*10876 FILLER_69_452
*10877 FILLER_69_459
*10878 FILLER_69_46
*10879 FILLER_69_466
*10880 FILLER_69_473
*10881 FILLER_69_480
*10882 FILLER_69_487
*10883 FILLER_69_494
*10884 FILLER_69_50
*10885 FILLER_69_501
*10886 FILLER_69_508
*10887 FILLER_69_515
*10888 FILLER_69_522
*10889 FILLER_69_529
*10890 FILLER_69_536
*10891 FILLER_69_543
*10892 FILLER_69_550
*10893 FILLER_69_557
*10894 FILLER_69_564
*10895 FILLER_69_571
*10896 FILLER_69_578
*10897 FILLER_69_585
*10898 FILLER_69_592
*10899 FILLER_69_599
*10900 FILLER_69_606
*10901 FILLER_69_613
*10902 FILLER_69_620
*10903 FILLER_69_627
*10904 FILLER_69_634
*10905 FILLER_69_641
*10906 FILLER_69_648
*10907 FILLER_69_65
*10908 FILLER_69_655
*10909 FILLER_69_662
*10910 FILLER_69_669
*10911 FILLER_69_676
*10912 FILLER_69_683
*10913 FILLER_69_690
*10914 FILLER_69_697
*10915 FILLER_69_704
*10916 FILLER_69_711
*10917 FILLER_69_718
*10918 FILLER_69_72
*10919 FILLER_69_725
*10920 FILLER_69_732
*10921 FILLER_69_739
*10922 FILLER_69_746
*10923 FILLER_69_753
*10924 FILLER_69_760
*10925 FILLER_69_767
*10926 FILLER_69_774
*10927 FILLER_69_781
*10928 FILLER_69_788
*10929 FILLER_69_79
*10930 FILLER_69_795
*10931 FILLER_69_802
*10932 FILLER_69_809
*10933 FILLER_69_816
*10934 FILLER_69_823
*10935 FILLER_69_830
*10936 FILLER_69_837
*10937 FILLER_69_844
*10938 FILLER_69_851
*10939 FILLER_69_858
*10940 FILLER_69_86
*10941 FILLER_69_865
*10942 FILLER_69_872
*10943 FILLER_69_879
*10944 FILLER_69_886
*10945 FILLER_69_893
*10946 FILLER_69_900
*10947 FILLER_69_907
*10948 FILLER_69_914
*10949 FILLER_69_921
*10950 FILLER_69_928
*10951 FILLER_69_93
*10952 FILLER_69_935
*10953 FILLER_69_942
*10954 FILLER_69_949
*10955 FILLER_69_956
*10956 FILLER_69_963
*10957 FILLER_69_970
*10958 FILLER_69_977
*10959 FILLER_69_984
*10960 FILLER_69_991
*10961 FILLER_69_998
*10962 FILLER_6_0
*10963 FILLER_6_1001
*10964 FILLER_6_1008
*10965 FILLER_6_1015
*10966 FILLER_6_1022
*10967 FILLER_6_105
*10968 FILLER_6_112
*10969 FILLER_6_119
*10970 FILLER_6_126
*10971 FILLER_6_133
*10972 FILLER_6_14
*10973 FILLER_6_140
*10974 FILLER_6_147
*10975 FILLER_6_154
*10976 FILLER_6_161
*10977 FILLER_6_168
*10978 FILLER_6_175
*10979 FILLER_6_182
*10980 FILLER_6_189
*10981 FILLER_6_196
*10982 FILLER_6_203
*10983 FILLER_6_21
*10984 FILLER_6_210
*10985 FILLER_6_217
*10986 FILLER_6_224
*10987 FILLER_6_231
*10988 FILLER_6_238
*10989 FILLER_6_245
*10990 FILLER_6_252
*10991 FILLER_6_259
*10992 FILLER_6_266
*10993 FILLER_6_273
*10994 FILLER_6_28
*10995 FILLER_6_280
*10996 FILLER_6_287
*10997 FILLER_6_294
*10998 FILLER_6_301
*10999 FILLER_6_308
*11000 FILLER_6_315
*11001 FILLER_6_322
*11002 FILLER_6_329
*11003 FILLER_6_336
*11004 FILLER_6_343
*11005 FILLER_6_35
*11006 FILLER_6_350
*11007 FILLER_6_357
*11008 FILLER_6_364
*11009 FILLER_6_371
*11010 FILLER_6_378
*11011 FILLER_6_385
*11012 FILLER_6_392
*11013 FILLER_6_399
*11014 FILLER_6_406
*11015 FILLER_6_413
*11016 FILLER_6_42
*11017 FILLER_6_420
*11018 FILLER_6_427
*11019 FILLER_6_434
*11020 FILLER_6_441
*11021 FILLER_6_448
*11022 FILLER_6_455
*11023 FILLER_6_462
*11024 FILLER_6_469
*11025 FILLER_6_476
*11026 FILLER_6_483
*11027 FILLER_6_49
*11028 FILLER_6_490
*11029 FILLER_6_497
*11030 FILLER_6_504
*11031 FILLER_6_511
*11032 FILLER_6_518
*11033 FILLER_6_525
*11034 FILLER_6_532
*11035 FILLER_6_539
*11036 FILLER_6_546
*11037 FILLER_6_553
*11038 FILLER_6_56
*11039 FILLER_6_560
*11040 FILLER_6_567
*11041 FILLER_6_574
*11042 FILLER_6_581
*11043 FILLER_6_588
*11044 FILLER_6_595
*11045 FILLER_6_602
*11046 FILLER_6_609
*11047 FILLER_6_616
*11048 FILLER_6_623
*11049 FILLER_6_63
*11050 FILLER_6_630
*11051 FILLER_6_637
*11052 FILLER_6_644
*11053 FILLER_6_651
*11054 FILLER_6_658
*11055 FILLER_6_665
*11056 FILLER_6_672
*11057 FILLER_6_679
*11058 FILLER_6_686
*11059 FILLER_6_693
*11060 FILLER_6_7
*11061 FILLER_6_70
*11062 FILLER_6_700
*11063 FILLER_6_707
*11064 FILLER_6_714
*11065 FILLER_6_721
*11066 FILLER_6_728
*11067 FILLER_6_735
*11068 FILLER_6_742
*11069 FILLER_6_749
*11070 FILLER_6_756
*11071 FILLER_6_763
*11072 FILLER_6_77
*11073 FILLER_6_770
*11074 FILLER_6_777
*11075 FILLER_6_784
*11076 FILLER_6_791
*11077 FILLER_6_798
*11078 FILLER_6_805
*11079 FILLER_6_812
*11080 FILLER_6_819
*11081 FILLER_6_826
*11082 FILLER_6_833
*11083 FILLER_6_84
*11084 FILLER_6_840
*11085 FILLER_6_847
*11086 FILLER_6_854
*11087 FILLER_6_861
*11088 FILLER_6_868
*11089 FILLER_6_875
*11090 FILLER_6_882
*11091 FILLER_6_889
*11092 FILLER_6_896
*11093 FILLER_6_903
*11094 FILLER_6_91
*11095 FILLER_6_910
*11096 FILLER_6_917
*11097 FILLER_6_924
*11098 FILLER_6_931
*11099 FILLER_6_938
*11100 FILLER_6_945
*11101 FILLER_6_952
*11102 FILLER_6_959
*11103 FILLER_6_966
*11104 FILLER_6_973
*11105 FILLER_6_98
*11106 FILLER_6_980
*11107 FILLER_6_987
*11108 FILLER_6_994
*11109 FILLER_70_1000
*11110 FILLER_70_1007
*11111 FILLER_70_1014
*11112 FILLER_70_1021
*11113 FILLER_70_1028
*11114 FILLER_70_104
*11115 FILLER_70_11
*11116 FILLER_70_111
*11117 FILLER_70_118
*11118 FILLER_70_125
*11119 FILLER_70_127
*11120 FILLER_70_132
*11121 FILLER_70_139
*11122 FILLER_70_146
*11123 FILLER_70_153
*11124 FILLER_70_160
*11125 FILLER_70_167
*11126 FILLER_70_174
*11127 FILLER_70_18
*11128 FILLER_70_181
*11129 FILLER_70_188
*11130 FILLER_70_195
*11131 FILLER_70_202
*11132 FILLER_70_209
*11133 FILLER_70_216
*11134 FILLER_70_223
*11135 FILLER_70_230
*11136 FILLER_70_237
*11137 FILLER_70_244
*11138 FILLER_70_251
*11139 FILLER_70_258
*11140 FILLER_70_265
*11141 FILLER_70_27
*11142 FILLER_70_272
*11143 FILLER_70_279
*11144 FILLER_70_286
*11145 FILLER_70_293
*11146 FILLER_70_300
*11147 FILLER_70_307
*11148 FILLER_70_314
*11149 FILLER_70_321
*11150 FILLER_70_328
*11151 FILLER_70_335
*11152 FILLER_70_34
*11153 FILLER_70_342
*11154 FILLER_70_349
*11155 FILLER_70_356
*11156 FILLER_70_363
*11157 FILLER_70_370
*11158 FILLER_70_377
*11159 FILLER_70_384
*11160 FILLER_70_391
*11161 FILLER_70_398
*11162 FILLER_70_4
*11163 FILLER_70_405
*11164 FILLER_70_41
*11165 FILLER_70_412
*11166 FILLER_70_419
*11167 FILLER_70_426
*11168 FILLER_70_433
*11169 FILLER_70_440
*11170 FILLER_70_447
*11171 FILLER_70_454
*11172 FILLER_70_461
*11173 FILLER_70_468
*11174 FILLER_70_475
*11175 FILLER_70_48
*11176 FILLER_70_482
*11177 FILLER_70_489
*11178 FILLER_70_496
*11179 FILLER_70_503
*11180 FILLER_70_510
*11181 FILLER_70_517
*11182 FILLER_70_524
*11183 FILLER_70_531
*11184 FILLER_70_538
*11185 FILLER_70_545
*11186 FILLER_70_55
*11187 FILLER_70_552
*11188 FILLER_70_559
*11189 FILLER_70_566
*11190 FILLER_70_573
*11191 FILLER_70_580
*11192 FILLER_70_587
*11193 FILLER_70_594
*11194 FILLER_70_601
*11195 FILLER_70_608
*11196 FILLER_70_615
*11197 FILLER_70_62
*11198 FILLER_70_622
*11199 FILLER_70_629
*11200 FILLER_70_636
*11201 FILLER_70_643
*11202 FILLER_70_650
*11203 FILLER_70_657
*11204 FILLER_70_664
*11205 FILLER_70_671
*11206 FILLER_70_678
*11207 FILLER_70_685
*11208 FILLER_70_69
*11209 FILLER_70_692
*11210 FILLER_70_699
*11211 FILLER_70_706
*11212 FILLER_70_713
*11213 FILLER_70_720
*11214 FILLER_70_727
*11215 FILLER_70_734
*11216 FILLER_70_741
*11217 FILLER_70_748
*11218 FILLER_70_755
*11219 FILLER_70_76
*11220 FILLER_70_762
*11221 FILLER_70_769
*11222 FILLER_70_776
*11223 FILLER_70_783
*11224 FILLER_70_790
*11225 FILLER_70_797
*11226 FILLER_70_804
*11227 FILLER_70_811
*11228 FILLER_70_818
*11229 FILLER_70_825
*11230 FILLER_70_83
*11231 FILLER_70_832
*11232 FILLER_70_839
*11233 FILLER_70_846
*11234 FILLER_70_853
*11235 FILLER_70_860
*11236 FILLER_70_867
*11237 FILLER_70_874
*11238 FILLER_70_881
*11239 FILLER_70_888
*11240 FILLER_70_895
*11241 FILLER_70_90
*11242 FILLER_70_902
*11243 FILLER_70_909
*11244 FILLER_70_916
*11245 FILLER_70_923
*11246 FILLER_70_930
*11247 FILLER_70_937
*11248 FILLER_70_944
*11249 FILLER_70_951
*11250 FILLER_70_958
*11251 FILLER_70_965
*11252 FILLER_70_97
*11253 FILLER_70_972
*11254 FILLER_70_979
*11255 FILLER_70_986
*11256 FILLER_70_993
*11257 FILLER_71_0
*11258 FILLER_71_1005
*11259 FILLER_71_1012
*11260 FILLER_71_1019
*11261 FILLER_71_102
*11262 FILLER_71_1026
*11263 FILLER_71_1028
*11264 FILLER_71_109
*11265 FILLER_71_116
*11266 FILLER_71_123
*11267 FILLER_71_130
*11268 FILLER_71_137
*11269 FILLER_71_14
*11270 FILLER_71_144
*11271 FILLER_71_151
*11272 FILLER_71_158
*11273 FILLER_71_165
*11274 FILLER_71_172
*11275 FILLER_71_179
*11276 FILLER_71_18
*11277 FILLER_71_186
*11278 FILLER_71_193
*11279 FILLER_71_200
*11280 FILLER_71_207
*11281 FILLER_71_214
*11282 FILLER_71_221
*11283 FILLER_71_228
*11284 FILLER_71_235
*11285 FILLER_71_242
*11286 FILLER_71_249
*11287 FILLER_71_25
*11288 FILLER_71_256
*11289 FILLER_71_263
*11290 FILLER_71_270
*11291 FILLER_71_277
*11292 FILLER_71_284
*11293 FILLER_71_291
*11294 FILLER_71_298
*11295 FILLER_71_305
*11296 FILLER_71_312
*11297 FILLER_71_319
*11298 FILLER_71_32
*11299 FILLER_71_326
*11300 FILLER_71_333
*11301 FILLER_71_340
*11302 FILLER_71_347
*11303 FILLER_71_354
*11304 FILLER_71_361
*11305 FILLER_71_368
*11306 FILLER_71_375
*11307 FILLER_71_382
*11308 FILLER_71_389
*11309 FILLER_71_39
*11310 FILLER_71_396
*11311 FILLER_71_403
*11312 FILLER_71_410
*11313 FILLER_71_417
*11314 FILLER_71_424
*11315 FILLER_71_431
*11316 FILLER_71_438
*11317 FILLER_71_445
*11318 FILLER_71_452
*11319 FILLER_71_459
*11320 FILLER_71_46
*11321 FILLER_71_466
*11322 FILLER_71_473
*11323 FILLER_71_480
*11324 FILLER_71_487
*11325 FILLER_71_494
*11326 FILLER_71_501
*11327 FILLER_71_508
*11328 FILLER_71_515
*11329 FILLER_71_522
*11330 FILLER_71_529
*11331 FILLER_71_53
*11332 FILLER_71_536
*11333 FILLER_71_543
*11334 FILLER_71_550
*11335 FILLER_71_557
*11336 FILLER_71_564
*11337 FILLER_71_571
*11338 FILLER_71_578
*11339 FILLER_71_585
*11340 FILLER_71_592
*11341 FILLER_71_599
*11342 FILLER_71_60
*11343 FILLER_71_606
*11344 FILLER_71_613
*11345 FILLER_71_620
*11346 FILLER_71_627
*11347 FILLER_71_634
*11348 FILLER_71_641
*11349 FILLER_71_648
*11350 FILLER_71_655
*11351 FILLER_71_662
*11352 FILLER_71_669
*11353 FILLER_71_67
*11354 FILLER_71_676
*11355 FILLER_71_683
*11356 FILLER_71_690
*11357 FILLER_71_697
*11358 FILLER_71_7
*11359 FILLER_71_704
*11360 FILLER_71_711
*11361 FILLER_71_718
*11362 FILLER_71_725
*11363 FILLER_71_732
*11364 FILLER_71_739
*11365 FILLER_71_74
*11366 FILLER_71_746
*11367 FILLER_71_753
*11368 FILLER_71_760
*11369 FILLER_71_767
*11370 FILLER_71_774
*11371 FILLER_71_781
*11372 FILLER_71_788
*11373 FILLER_71_795
*11374 FILLER_71_802
*11375 FILLER_71_809
*11376 FILLER_71_81
*11377 FILLER_71_816
*11378 FILLER_71_823
*11379 FILLER_71_830
*11380 FILLER_71_837
*11381 FILLER_71_844
*11382 FILLER_71_851
*11383 FILLER_71_858
*11384 FILLER_71_865
*11385 FILLER_71_872
*11386 FILLER_71_879
*11387 FILLER_71_88
*11388 FILLER_71_886
*11389 FILLER_71_893
*11390 FILLER_71_900
*11391 FILLER_71_907
*11392 FILLER_71_914
*11393 FILLER_71_921
*11394 FILLER_71_928
*11395 FILLER_71_935
*11396 FILLER_71_942
*11397 FILLER_71_949
*11398 FILLER_71_95
*11399 FILLER_71_956
*11400 FILLER_71_963
*11401 FILLER_71_970
*11402 FILLER_71_977
*11403 FILLER_71_984
*11404 FILLER_71_991
*11405 FILLER_71_998
*11406 FILLER_72_1004
*11407 FILLER_72_101
*11408 FILLER_72_1011
*11409 FILLER_72_1018
*11410 FILLER_72_1025
*11411 FILLER_72_108
*11412 FILLER_72_11
*11413 FILLER_72_115
*11414 FILLER_72_122
*11415 FILLER_72_129
*11416 FILLER_72_136
*11417 FILLER_72_143
*11418 FILLER_72_150
*11419 FILLER_72_157
*11420 FILLER_72_164
*11421 FILLER_72_171
*11422 FILLER_72_178
*11423 FILLER_72_18
*11424 FILLER_72_185
*11425 FILLER_72_192
*11426 FILLER_72_199
*11427 FILLER_72_206
*11428 FILLER_72_213
*11429 FILLER_72_220
*11430 FILLER_72_227
*11431 FILLER_72_234
*11432 FILLER_72_24
*11433 FILLER_72_241
*11434 FILLER_72_248
*11435 FILLER_72_255
*11436 FILLER_72_26
*11437 FILLER_72_262
*11438 FILLER_72_269
*11439 FILLER_72_276
*11440 FILLER_72_283
*11441 FILLER_72_290
*11442 FILLER_72_297
*11443 FILLER_72_304
*11444 FILLER_72_31
*11445 FILLER_72_311
*11446 FILLER_72_318
*11447 FILLER_72_325
*11448 FILLER_72_332
*11449 FILLER_72_339
*11450 FILLER_72_346
*11451 FILLER_72_353
*11452 FILLER_72_360
*11453 FILLER_72_367
*11454 FILLER_72_374
*11455 FILLER_72_38
*11456 FILLER_72_381
*11457 FILLER_72_388
*11458 FILLER_72_395
*11459 FILLER_72_4
*11460 FILLER_72_402
*11461 FILLER_72_409
*11462 FILLER_72_416
*11463 FILLER_72_423
*11464 FILLER_72_430
*11465 FILLER_72_437
*11466 FILLER_72_444
*11467 FILLER_72_45
*11468 FILLER_72_451
*11469 FILLER_72_458
*11470 FILLER_72_465
*11471 FILLER_72_472
*11472 FILLER_72_479
*11473 FILLER_72_486
*11474 FILLER_72_493
*11475 FILLER_72_500
*11476 FILLER_72_507
*11477 FILLER_72_514
*11478 FILLER_72_52
*11479 FILLER_72_521
*11480 FILLER_72_528
*11481 FILLER_72_535
*11482 FILLER_72_542
*11483 FILLER_72_549
*11484 FILLER_72_556
*11485 FILLER_72_563
*11486 FILLER_72_570
*11487 FILLER_72_577
*11488 FILLER_72_584
*11489 FILLER_72_59
*11490 FILLER_72_591
*11491 FILLER_72_598
*11492 FILLER_72_605
*11493 FILLER_72_612
*11494 FILLER_72_619
*11495 FILLER_72_626
*11496 FILLER_72_633
*11497 FILLER_72_640
*11498 FILLER_72_647
*11499 FILLER_72_654
*11500 FILLER_72_66
*11501 FILLER_72_661
*11502 FILLER_72_668
*11503 FILLER_72_675
*11504 FILLER_72_682
*11505 FILLER_72_689
*11506 FILLER_72_696
*11507 FILLER_72_703
*11508 FILLER_72_710
*11509 FILLER_72_717
*11510 FILLER_72_724
*11511 FILLER_72_73
*11512 FILLER_72_731
*11513 FILLER_72_738
*11514 FILLER_72_745
*11515 FILLER_72_752
*11516 FILLER_72_759
*11517 FILLER_72_766
*11518 FILLER_72_773
*11519 FILLER_72_780
*11520 FILLER_72_787
*11521 FILLER_72_794
*11522 FILLER_72_80
*11523 FILLER_72_801
*11524 FILLER_72_808
*11525 FILLER_72_815
*11526 FILLER_72_822
*11527 FILLER_72_829
*11528 FILLER_72_836
*11529 FILLER_72_843
*11530 FILLER_72_850
*11531 FILLER_72_857
*11532 FILLER_72_864
*11533 FILLER_72_87
*11534 FILLER_72_871
*11535 FILLER_72_878
*11536 FILLER_72_885
*11537 FILLER_72_892
*11538 FILLER_72_899
*11539 FILLER_72_906
*11540 FILLER_72_913
*11541 FILLER_72_920
*11542 FILLER_72_927
*11543 FILLER_72_934
*11544 FILLER_72_94
*11545 FILLER_72_941
*11546 FILLER_72_948
*11547 FILLER_72_955
*11548 FILLER_72_962
*11549 FILLER_72_969
*11550 FILLER_72_976
*11551 FILLER_72_983
*11552 FILLER_72_990
*11553 FILLER_72_997
*11554 FILLER_73_1001
*11555 FILLER_73_1008
*11556 FILLER_73_1015
*11557 FILLER_73_1022
*11558 FILLER_73_105
*11559 FILLER_73_11
*11560 FILLER_73_112
*11561 FILLER_73_119
*11562 FILLER_73_126
*11563 FILLER_73_133
*11564 FILLER_73_140
*11565 FILLER_73_147
*11566 FILLER_73_154
*11567 FILLER_73_161
*11568 FILLER_73_168
*11569 FILLER_73_175
*11570 FILLER_73_18
*11571 FILLER_73_182
*11572 FILLER_73_189
*11573 FILLER_73_196
*11574 FILLER_73_203
*11575 FILLER_73_210
*11576 FILLER_73_217
*11577 FILLER_73_224
*11578 FILLER_73_231
*11579 FILLER_73_238
*11580 FILLER_73_245
*11581 FILLER_73_25
*11582 FILLER_73_252
*11583 FILLER_73_259
*11584 FILLER_73_266
*11585 FILLER_73_273
*11586 FILLER_73_280
*11587 FILLER_73_287
*11588 FILLER_73_294
*11589 FILLER_73_301
*11590 FILLER_73_308
*11591 FILLER_73_315
*11592 FILLER_73_32
*11593 FILLER_73_322
*11594 FILLER_73_329
*11595 FILLER_73_336
*11596 FILLER_73_343
*11597 FILLER_73_350
*11598 FILLER_73_357
*11599 FILLER_73_364
*11600 FILLER_73_371
*11601 FILLER_73_378
*11602 FILLER_73_385
*11603 FILLER_73_39
*11604 FILLER_73_392
*11605 FILLER_73_399
*11606 FILLER_73_4
*11607 FILLER_73_406
*11608 FILLER_73_413
*11609 FILLER_73_420
*11610 FILLER_73_427
*11611 FILLER_73_434
*11612 FILLER_73_441
*11613 FILLER_73_448
*11614 FILLER_73_455
*11615 FILLER_73_46
*11616 FILLER_73_462
*11617 FILLER_73_469
*11618 FILLER_73_476
*11619 FILLER_73_483
*11620 FILLER_73_490
*11621 FILLER_73_497
*11622 FILLER_73_504
*11623 FILLER_73_511
*11624 FILLER_73_518
*11625 FILLER_73_525
*11626 FILLER_73_53
*11627 FILLER_73_532
*11628 FILLER_73_539
*11629 FILLER_73_546
*11630 FILLER_73_553
*11631 FILLER_73_560
*11632 FILLER_73_567
*11633 FILLER_73_574
*11634 FILLER_73_581
*11635 FILLER_73_588
*11636 FILLER_73_595
*11637 FILLER_73_60
*11638 FILLER_73_602
*11639 FILLER_73_609
*11640 FILLER_73_616
*11641 FILLER_73_623
*11642 FILLER_73_630
*11643 FILLER_73_637
*11644 FILLER_73_644
*11645 FILLER_73_651
*11646 FILLER_73_658
*11647 FILLER_73_665
*11648 FILLER_73_67
*11649 FILLER_73_672
*11650 FILLER_73_679
*11651 FILLER_73_686
*11652 FILLER_73_693
*11653 FILLER_73_700
*11654 FILLER_73_707
*11655 FILLER_73_714
*11656 FILLER_73_721
*11657 FILLER_73_728
*11658 FILLER_73_735
*11659 FILLER_73_74
*11660 FILLER_73_742
*11661 FILLER_73_749
*11662 FILLER_73_756
*11663 FILLER_73_763
*11664 FILLER_73_770
*11665 FILLER_73_777
*11666 FILLER_73_78
*11667 FILLER_73_784
*11668 FILLER_73_791
*11669 FILLER_73_798
*11670 FILLER_73_805
*11671 FILLER_73_812
*11672 FILLER_73_819
*11673 FILLER_73_826
*11674 FILLER_73_833
*11675 FILLER_73_84
*11676 FILLER_73_840
*11677 FILLER_73_847
*11678 FILLER_73_854
*11679 FILLER_73_861
*11680 FILLER_73_868
*11681 FILLER_73_875
*11682 FILLER_73_882
*11683 FILLER_73_889
*11684 FILLER_73_896
*11685 FILLER_73_903
*11686 FILLER_73_91
*11687 FILLER_73_910
*11688 FILLER_73_917
*11689 FILLER_73_924
*11690 FILLER_73_931
*11691 FILLER_73_938
*11692 FILLER_73_945
*11693 FILLER_73_952
*11694 FILLER_73_959
*11695 FILLER_73_966
*11696 FILLER_73_973
*11697 FILLER_73_98
*11698 FILLER_73_980
*11699 FILLER_73_987
*11700 FILLER_73_994
*11701 FILLER_74_1005
*11702 FILLER_74_1012
*11703 FILLER_74_1019
*11704 FILLER_74_102
*11705 FILLER_74_1026
*11706 FILLER_74_1028
*11707 FILLER_74_109
*11708 FILLER_74_11
*11709 FILLER_74_116
*11710 FILLER_74_123
*11711 FILLER_74_130
*11712 FILLER_74_137
*11713 FILLER_74_144
*11714 FILLER_74_151
*11715 FILLER_74_158
*11716 FILLER_74_165
*11717 FILLER_74_172
*11718 FILLER_74_179
*11719 FILLER_74_18
*11720 FILLER_74_186
*11721 FILLER_74_193
*11722 FILLER_74_200
*11723 FILLER_74_207
*11724 FILLER_74_214
*11725 FILLER_74_221
*11726 FILLER_74_228
*11727 FILLER_74_235
*11728 FILLER_74_242
*11729 FILLER_74_249
*11730 FILLER_74_25
*11731 FILLER_74_256
*11732 FILLER_74_263
*11733 FILLER_74_270
*11734 FILLER_74_277
*11735 FILLER_74_284
*11736 FILLER_74_291
*11737 FILLER_74_298
*11738 FILLER_74_305
*11739 FILLER_74_312
*11740 FILLER_74_319
*11741 FILLER_74_32
*11742 FILLER_74_326
*11743 FILLER_74_333
*11744 FILLER_74_340
*11745 FILLER_74_347
*11746 FILLER_74_354
*11747 FILLER_74_361
*11748 FILLER_74_368
*11749 FILLER_74_375
*11750 FILLER_74_382
*11751 FILLER_74_389
*11752 FILLER_74_39
*11753 FILLER_74_396
*11754 FILLER_74_4
*11755 FILLER_74_403
*11756 FILLER_74_410
*11757 FILLER_74_417
*11758 FILLER_74_424
*11759 FILLER_74_431
*11760 FILLER_74_438
*11761 FILLER_74_445
*11762 FILLER_74_452
*11763 FILLER_74_459
*11764 FILLER_74_46
*11765 FILLER_74_466
*11766 FILLER_74_473
*11767 FILLER_74_480
*11768 FILLER_74_487
*11769 FILLER_74_494
*11770 FILLER_74_501
*11771 FILLER_74_508
*11772 FILLER_74_515
*11773 FILLER_74_522
*11774 FILLER_74_529
*11775 FILLER_74_53
*11776 FILLER_74_536
*11777 FILLER_74_543
*11778 FILLER_74_550
*11779 FILLER_74_557
*11780 FILLER_74_564
*11781 FILLER_74_571
*11782 FILLER_74_578
*11783 FILLER_74_585
*11784 FILLER_74_592
*11785 FILLER_74_599
*11786 FILLER_74_60
*11787 FILLER_74_606
*11788 FILLER_74_613
*11789 FILLER_74_620
*11790 FILLER_74_627
*11791 FILLER_74_634
*11792 FILLER_74_641
*11793 FILLER_74_648
*11794 FILLER_74_655
*11795 FILLER_74_662
*11796 FILLER_74_669
*11797 FILLER_74_67
*11798 FILLER_74_676
*11799 FILLER_74_683
*11800 FILLER_74_690
*11801 FILLER_74_697
*11802 FILLER_74_704
*11803 FILLER_74_711
*11804 FILLER_74_718
*11805 FILLER_74_725
*11806 FILLER_74_732
*11807 FILLER_74_739
*11808 FILLER_74_74
*11809 FILLER_74_746
*11810 FILLER_74_753
*11811 FILLER_74_760
*11812 FILLER_74_767
*11813 FILLER_74_774
*11814 FILLER_74_781
*11815 FILLER_74_788
*11816 FILLER_74_795
*11817 FILLER_74_802
*11818 FILLER_74_809
*11819 FILLER_74_81
*11820 FILLER_74_816
*11821 FILLER_74_823
*11822 FILLER_74_830
*11823 FILLER_74_837
*11824 FILLER_74_844
*11825 FILLER_74_851
*11826 FILLER_74_858
*11827 FILLER_74_865
*11828 FILLER_74_872
*11829 FILLER_74_879
*11830 FILLER_74_88
*11831 FILLER_74_886
*11832 FILLER_74_893
*11833 FILLER_74_900
*11834 FILLER_74_907
*11835 FILLER_74_914
*11836 FILLER_74_921
*11837 FILLER_74_928
*11838 FILLER_74_935
*11839 FILLER_74_942
*11840 FILLER_74_949
*11841 FILLER_74_95
*11842 FILLER_74_956
*11843 FILLER_74_963
*11844 FILLER_74_970
*11845 FILLER_74_977
*11846 FILLER_74_984
*11847 FILLER_74_991
*11848 FILLER_74_998
*11849 FILLER_75_1000
*11850 FILLER_75_1007
*11851 FILLER_75_1014
*11852 FILLER_75_102
*11853 FILLER_75_1021
*11854 FILLER_75_1028
*11855 FILLER_75_11
*11856 FILLER_75_118
*11857 FILLER_75_125
*11858 FILLER_75_132
*11859 FILLER_75_139
*11860 FILLER_75_146
*11861 FILLER_75_153
*11862 FILLER_75_160
*11863 FILLER_75_167
*11864 FILLER_75_174
*11865 FILLER_75_18
*11866 FILLER_75_181
*11867 FILLER_75_188
*11868 FILLER_75_195
*11869 FILLER_75_202
*11870 FILLER_75_209
*11871 FILLER_75_216
*11872 FILLER_75_223
*11873 FILLER_75_230
*11874 FILLER_75_237
*11875 FILLER_75_244
*11876 FILLER_75_25
*11877 FILLER_75_251
*11878 FILLER_75_258
*11879 FILLER_75_265
*11880 FILLER_75_272
*11881 FILLER_75_279
*11882 FILLER_75_286
*11883 FILLER_75_293
*11884 FILLER_75_300
*11885 FILLER_75_307
*11886 FILLER_75_314
*11887 FILLER_75_32
*11888 FILLER_75_321
*11889 FILLER_75_328
*11890 FILLER_75_335
*11891 FILLER_75_342
*11892 FILLER_75_349
*11893 FILLER_75_356
*11894 FILLER_75_363
*11895 FILLER_75_370
*11896 FILLER_75_377
*11897 FILLER_75_384
*11898 FILLER_75_391
*11899 FILLER_75_398
*11900 FILLER_75_4
*11901 FILLER_75_405
*11902 FILLER_75_412
*11903 FILLER_75_419
*11904 FILLER_75_42
*11905 FILLER_75_426
*11906 FILLER_75_433
*11907 FILLER_75_440
*11908 FILLER_75_447
*11909 FILLER_75_454
*11910 FILLER_75_461
*11911 FILLER_75_468
*11912 FILLER_75_475
*11913 FILLER_75_482
*11914 FILLER_75_489
*11915 FILLER_75_49
*11916 FILLER_75_496
*11917 FILLER_75_503
*11918 FILLER_75_510
*11919 FILLER_75_517
*11920 FILLER_75_524
*11921 FILLER_75_531
*11922 FILLER_75_538
*11923 FILLER_75_545
*11924 FILLER_75_552
*11925 FILLER_75_559
*11926 FILLER_75_56
*11927 FILLER_75_566
*11928 FILLER_75_573
*11929 FILLER_75_580
*11930 FILLER_75_587
*11931 FILLER_75_594
*11932 FILLER_75_601
*11933 FILLER_75_608
*11934 FILLER_75_615
*11935 FILLER_75_622
*11936 FILLER_75_629
*11937 FILLER_75_63
*11938 FILLER_75_636
*11939 FILLER_75_643
*11940 FILLER_75_650
*11941 FILLER_75_657
*11942 FILLER_75_664
*11943 FILLER_75_671
*11944 FILLER_75_678
*11945 FILLER_75_685
*11946 FILLER_75_692
*11947 FILLER_75_699
*11948 FILLER_75_70
*11949 FILLER_75_706
*11950 FILLER_75_713
*11951 FILLER_75_720
*11952 FILLER_75_727
*11953 FILLER_75_734
*11954 FILLER_75_741
*11955 FILLER_75_748
*11956 FILLER_75_755
*11957 FILLER_75_762
*11958 FILLER_75_769
*11959 FILLER_75_77
*11960 FILLER_75_776
*11961 FILLER_75_783
*11962 FILLER_75_790
*11963 FILLER_75_797
*11964 FILLER_75_804
*11965 FILLER_75_811
*11966 FILLER_75_818
*11967 FILLER_75_825
*11968 FILLER_75_832
*11969 FILLER_75_839
*11970 FILLER_75_84
*11971 FILLER_75_846
*11972 FILLER_75_853
*11973 FILLER_75_860
*11974 FILLER_75_867
*11975 FILLER_75_874
*11976 FILLER_75_881
*11977 FILLER_75_888
*11978 FILLER_75_895
*11979 FILLER_75_902
*11980 FILLER_75_909
*11981 FILLER_75_91
*11982 FILLER_75_916
*11983 FILLER_75_923
*11984 FILLER_75_930
*11985 FILLER_75_937
*11986 FILLER_75_944
*11987 FILLER_75_951
*11988 FILLER_75_958
*11989 FILLER_75_965
*11990 FILLER_75_972
*11991 FILLER_75_979
*11992 FILLER_75_98
*11993 FILLER_75_986
*11994 FILLER_75_993
*11995 FILLER_76_1000
*11996 FILLER_76_1007
*11997 FILLER_76_1014
*11998 FILLER_76_1021
*11999 FILLER_76_1028
*12000 FILLER_76_104
*12001 FILLER_76_11
*12002 FILLER_76_111
*12003 FILLER_76_118
*12004 FILLER_76_125
*12005 FILLER_76_132
*12006 FILLER_76_139
*12007 FILLER_76_146
*12008 FILLER_76_153
*12009 FILLER_76_160
*12010 FILLER_76_167
*12011 FILLER_76_174
*12012 FILLER_76_18
*12013 FILLER_76_181
*12014 FILLER_76_188
*12015 FILLER_76_195
*12016 FILLER_76_202
*12017 FILLER_76_209
*12018 FILLER_76_216
*12019 FILLER_76_223
*12020 FILLER_76_230
*12021 FILLER_76_237
*12022 FILLER_76_244
*12023 FILLER_76_251
*12024 FILLER_76_258
*12025 FILLER_76_265
*12026 FILLER_76_27
*12027 FILLER_76_272
*12028 FILLER_76_279
*12029 FILLER_76_286
*12030 FILLER_76_293
*12031 FILLER_76_300
*12032 FILLER_76_307
*12033 FILLER_76_314
*12034 FILLER_76_321
*12035 FILLER_76_328
*12036 FILLER_76_335
*12037 FILLER_76_34
*12038 FILLER_76_342
*12039 FILLER_76_349
*12040 FILLER_76_356
*12041 FILLER_76_363
*12042 FILLER_76_370
*12043 FILLER_76_377
*12044 FILLER_76_384
*12045 FILLER_76_391
*12046 FILLER_76_398
*12047 FILLER_76_4
*12048 FILLER_76_405
*12049 FILLER_76_41
*12050 FILLER_76_412
*12051 FILLER_76_419
*12052 FILLER_76_426
*12053 FILLER_76_433
*12054 FILLER_76_440
*12055 FILLER_76_447
*12056 FILLER_76_454
*12057 FILLER_76_461
*12058 FILLER_76_468
*12059 FILLER_76_475
*12060 FILLER_76_48
*12061 FILLER_76_482
*12062 FILLER_76_489
*12063 FILLER_76_496
*12064 FILLER_76_503
*12065 FILLER_76_510
*12066 FILLER_76_517
*12067 FILLER_76_524
*12068 FILLER_76_531
*12069 FILLER_76_538
*12070 FILLER_76_545
*12071 FILLER_76_55
*12072 FILLER_76_552
*12073 FILLER_76_559
*12074 FILLER_76_566
*12075 FILLER_76_573
*12076 FILLER_76_580
*12077 FILLER_76_587
*12078 FILLER_76_594
*12079 FILLER_76_601
*12080 FILLER_76_608
*12081 FILLER_76_615
*12082 FILLER_76_62
*12083 FILLER_76_622
*12084 FILLER_76_629
*12085 FILLER_76_636
*12086 FILLER_76_643
*12087 FILLER_76_650
*12088 FILLER_76_657
*12089 FILLER_76_66
*12090 FILLER_76_664
*12091 FILLER_76_671
*12092 FILLER_76_678
*12093 FILLER_76_685
*12094 FILLER_76_692
*12095 FILLER_76_699
*12096 FILLER_76_706
*12097 FILLER_76_713
*12098 FILLER_76_720
*12099 FILLER_76_727
*12100 FILLER_76_734
*12101 FILLER_76_741
*12102 FILLER_76_748
*12103 FILLER_76_755
*12104 FILLER_76_762
*12105 FILLER_76_769
*12106 FILLER_76_776
*12107 FILLER_76_783
*12108 FILLER_76_790
*12109 FILLER_76_797
*12110 FILLER_76_80
*12111 FILLER_76_804
*12112 FILLER_76_811
*12113 FILLER_76_818
*12114 FILLER_76_825
*12115 FILLER_76_832
*12116 FILLER_76_839
*12117 FILLER_76_846
*12118 FILLER_76_853
*12119 FILLER_76_860
*12120 FILLER_76_867
*12121 FILLER_76_87
*12122 FILLER_76_874
*12123 FILLER_76_881
*12124 FILLER_76_888
*12125 FILLER_76_895
*12126 FILLER_76_902
*12127 FILLER_76_909
*12128 FILLER_76_91
*12129 FILLER_76_916
*12130 FILLER_76_923
*12131 FILLER_76_930
*12132 FILLER_76_937
*12133 FILLER_76_944
*12134 FILLER_76_951
*12135 FILLER_76_958
*12136 FILLER_76_965
*12137 FILLER_76_97
*12138 FILLER_76_972
*12139 FILLER_76_979
*12140 FILLER_76_986
*12141 FILLER_76_993
*12142 FILLER_77_1001
*12143 FILLER_77_1008
*12144 FILLER_77_1015
*12145 FILLER_77_1022
*12146 FILLER_77_105
*12147 FILLER_77_11
*12148 FILLER_77_112
*12149 FILLER_77_119
*12150 FILLER_77_126
*12151 FILLER_77_133
*12152 FILLER_77_140
*12153 FILLER_77_147
*12154 FILLER_77_154
*12155 FILLER_77_161
*12156 FILLER_77_168
*12157 FILLER_77_175
*12158 FILLER_77_18
*12159 FILLER_77_182
*12160 FILLER_77_189
*12161 FILLER_77_196
*12162 FILLER_77_203
*12163 FILLER_77_210
*12164 FILLER_77_217
*12165 FILLER_77_224
*12166 FILLER_77_231
*12167 FILLER_77_238
*12168 FILLER_77_24
*12169 FILLER_77_245
*12170 FILLER_77_252
*12171 FILLER_77_259
*12172 FILLER_77_266
*12173 FILLER_77_273
*12174 FILLER_77_280
*12175 FILLER_77_287
*12176 FILLER_77_294
*12177 FILLER_77_301
*12178 FILLER_77_308
*12179 FILLER_77_31
*12180 FILLER_77_315
*12181 FILLER_77_322
*12182 FILLER_77_329
*12183 FILLER_77_336
*12184 FILLER_77_343
*12185 FILLER_77_350
*12186 FILLER_77_357
*12187 FILLER_77_364
*12188 FILLER_77_371
*12189 FILLER_77_378
*12190 FILLER_77_38
*12191 FILLER_77_385
*12192 FILLER_77_392
*12193 FILLER_77_399
*12194 FILLER_77_4
*12195 FILLER_77_406
*12196 FILLER_77_413
*12197 FILLER_77_420
*12198 FILLER_77_427
*12199 FILLER_77_434
*12200 FILLER_77_441
*12201 FILLER_77_448
*12202 FILLER_77_45
*12203 FILLER_77_455
*12204 FILLER_77_462
*12205 FILLER_77_469
*12206 FILLER_77_476
*12207 FILLER_77_483
*12208 FILLER_77_490
*12209 FILLER_77_497
*12210 FILLER_77_504
*12211 FILLER_77_511
*12212 FILLER_77_518
*12213 FILLER_77_52
*12214 FILLER_77_525
*12215 FILLER_77_532
*12216 FILLER_77_539
*12217 FILLER_77_546
*12218 FILLER_77_553
*12219 FILLER_77_560
*12220 FILLER_77_567
*12221 FILLER_77_574
*12222 FILLER_77_581
*12223 FILLER_77_588
*12224 FILLER_77_59
*12225 FILLER_77_595
*12226 FILLER_77_602
*12227 FILLER_77_609
*12228 FILLER_77_616
*12229 FILLER_77_623
*12230 FILLER_77_630
*12231 FILLER_77_637
*12232 FILLER_77_644
*12233 FILLER_77_651
*12234 FILLER_77_658
*12235 FILLER_77_66
*12236 FILLER_77_665
*12237 FILLER_77_672
*12238 FILLER_77_679
*12239 FILLER_77_686
*12240 FILLER_77_693
*12241 FILLER_77_700
*12242 FILLER_77_707
*12243 FILLER_77_714
*12244 FILLER_77_721
*12245 FILLER_77_728
*12246 FILLER_77_73
*12247 FILLER_77_735
*12248 FILLER_77_742
*12249 FILLER_77_749
*12250 FILLER_77_756
*12251 FILLER_77_763
*12252 FILLER_77_770
*12253 FILLER_77_777
*12254 FILLER_77_784
*12255 FILLER_77_791
*12256 FILLER_77_798
*12257 FILLER_77_80
*12258 FILLER_77_805
*12259 FILLER_77_812
*12260 FILLER_77_819
*12261 FILLER_77_826
*12262 FILLER_77_833
*12263 FILLER_77_84
*12264 FILLER_77_840
*12265 FILLER_77_847
*12266 FILLER_77_854
*12267 FILLER_77_861
*12268 FILLER_77_868
*12269 FILLER_77_875
*12270 FILLER_77_882
*12271 FILLER_77_889
*12272 FILLER_77_896
*12273 FILLER_77_903
*12274 FILLER_77_91
*12275 FILLER_77_910
*12276 FILLER_77_917
*12277 FILLER_77_924
*12278 FILLER_77_931
*12279 FILLER_77_938
*12280 FILLER_77_945
*12281 FILLER_77_952
*12282 FILLER_77_959
*12283 FILLER_77_966
*12284 FILLER_77_973
*12285 FILLER_77_98
*12286 FILLER_77_980
*12287 FILLER_77_987
*12288 FILLER_77_994
*12289 FILLER_78_1000
*12290 FILLER_78_1007
*12291 FILLER_78_1014
*12292 FILLER_78_1021
*12293 FILLER_78_1028
*12294 FILLER_78_104
*12295 FILLER_78_11
*12296 FILLER_78_111
*12297 FILLER_78_118
*12298 FILLER_78_125
*12299 FILLER_78_132
*12300 FILLER_78_139
*12301 FILLER_78_146
*12302 FILLER_78_15
*12303 FILLER_78_153
*12304 FILLER_78_160
*12305 FILLER_78_167
*12306 FILLER_78_174
*12307 FILLER_78_181
*12308 FILLER_78_188
*12309 FILLER_78_195
*12310 FILLER_78_202
*12311 FILLER_78_209
*12312 FILLER_78_216
*12313 FILLER_78_223
*12314 FILLER_78_230
*12315 FILLER_78_237
*12316 FILLER_78_24
*12317 FILLER_78_244
*12318 FILLER_78_251
*12319 FILLER_78_258
*12320 FILLER_78_265
*12321 FILLER_78_272
*12322 FILLER_78_279
*12323 FILLER_78_286
*12324 FILLER_78_293
*12325 FILLER_78_300
*12326 FILLER_78_307
*12327 FILLER_78_31
*12328 FILLER_78_314
*12329 FILLER_78_321
*12330 FILLER_78_328
*12331 FILLER_78_335
*12332 FILLER_78_342
*12333 FILLER_78_349
*12334 FILLER_78_356
*12335 FILLER_78_363
*12336 FILLER_78_370
*12337 FILLER_78_377
*12338 FILLER_78_38
*12339 FILLER_78_384
*12340 FILLER_78_391
*12341 FILLER_78_398
*12342 FILLER_78_4
*12343 FILLER_78_405
*12344 FILLER_78_412
*12345 FILLER_78_419
*12346 FILLER_78_426
*12347 FILLER_78_433
*12348 FILLER_78_440
*12349 FILLER_78_447
*12350 FILLER_78_45
*12351 FILLER_78_454
*12352 FILLER_78_461
*12353 FILLER_78_468
*12354 FILLER_78_475
*12355 FILLER_78_482
*12356 FILLER_78_489
*12357 FILLER_78_496
*12358 FILLER_78_503
*12359 FILLER_78_510
*12360 FILLER_78_517
*12361 FILLER_78_52
*12362 FILLER_78_524
*12363 FILLER_78_531
*12364 FILLER_78_538
*12365 FILLER_78_545
*12366 FILLER_78_552
*12367 FILLER_78_559
*12368 FILLER_78_566
*12369 FILLER_78_573
*12370 FILLER_78_580
*12371 FILLER_78_587
*12372 FILLER_78_59
*12373 FILLER_78_594
*12374 FILLER_78_601
*12375 FILLER_78_608
*12376 FILLER_78_615
*12377 FILLER_78_622
*12378 FILLER_78_629
*12379 FILLER_78_636
*12380 FILLER_78_643
*12381 FILLER_78_650
*12382 FILLER_78_657
*12383 FILLER_78_66
*12384 FILLER_78_664
*12385 FILLER_78_671
*12386 FILLER_78_678
*12387 FILLER_78_685
*12388 FILLER_78_692
*12389 FILLER_78_699
*12390 FILLER_78_706
*12391 FILLER_78_713
*12392 FILLER_78_720
*12393 FILLER_78_727
*12394 FILLER_78_73
*12395 FILLER_78_734
*12396 FILLER_78_741
*12397 FILLER_78_748
*12398 FILLER_78_755
*12399 FILLER_78_762
*12400 FILLER_78_769
*12401 FILLER_78_776
*12402 FILLER_78_783
*12403 FILLER_78_790
*12404 FILLER_78_797
*12405 FILLER_78_80
*12406 FILLER_78_804
*12407 FILLER_78_811
*12408 FILLER_78_818
*12409 FILLER_78_825
*12410 FILLER_78_832
*12411 FILLER_78_839
*12412 FILLER_78_84
*12413 FILLER_78_846
*12414 FILLER_78_853
*12415 FILLER_78_860
*12416 FILLER_78_867
*12417 FILLER_78_874
*12418 FILLER_78_881
*12419 FILLER_78_888
*12420 FILLER_78_895
*12421 FILLER_78_90
*12422 FILLER_78_902
*12423 FILLER_78_909
*12424 FILLER_78_916
*12425 FILLER_78_923
*12426 FILLER_78_930
*12427 FILLER_78_937
*12428 FILLER_78_944
*12429 FILLER_78_951
*12430 FILLER_78_958
*12431 FILLER_78_965
*12432 FILLER_78_97
*12433 FILLER_78_972
*12434 FILLER_78_979
*12435 FILLER_78_986
*12436 FILLER_78_993
*12437 FILLER_79_1005
*12438 FILLER_79_1012
*12439 FILLER_79_1019
*12440 FILLER_79_102
*12441 FILLER_79_1026
*12442 FILLER_79_1028
*12443 FILLER_79_109
*12444 FILLER_79_11
*12445 FILLER_79_116
*12446 FILLER_79_123
*12447 FILLER_79_130
*12448 FILLER_79_137
*12449 FILLER_79_144
*12450 FILLER_79_151
*12451 FILLER_79_158
*12452 FILLER_79_165
*12453 FILLER_79_172
*12454 FILLER_79_179
*12455 FILLER_79_18
*12456 FILLER_79_186
*12457 FILLER_79_193
*12458 FILLER_79_200
*12459 FILLER_79_207
*12460 FILLER_79_214
*12461 FILLER_79_221
*12462 FILLER_79_228
*12463 FILLER_79_235
*12464 FILLER_79_242
*12465 FILLER_79_249
*12466 FILLER_79_25
*12467 FILLER_79_256
*12468 FILLER_79_263
*12469 FILLER_79_270
*12470 FILLER_79_277
*12471 FILLER_79_284
*12472 FILLER_79_291
*12473 FILLER_79_298
*12474 FILLER_79_305
*12475 FILLER_79_312
*12476 FILLER_79_319
*12477 FILLER_79_32
*12478 FILLER_79_326
*12479 FILLER_79_333
*12480 FILLER_79_340
*12481 FILLER_79_347
*12482 FILLER_79_354
*12483 FILLER_79_361
*12484 FILLER_79_368
*12485 FILLER_79_375
*12486 FILLER_79_382
*12487 FILLER_79_389
*12488 FILLER_79_39
*12489 FILLER_79_396
*12490 FILLER_79_4
*12491 FILLER_79_403
*12492 FILLER_79_410
*12493 FILLER_79_417
*12494 FILLER_79_424
*12495 FILLER_79_431
*12496 FILLER_79_438
*12497 FILLER_79_445
*12498 FILLER_79_452
*12499 FILLER_79_459
*12500 FILLER_79_46
*12501 FILLER_79_466
*12502 FILLER_79_473
*12503 FILLER_79_480
*12504 FILLER_79_487
*12505 FILLER_79_494
*12506 FILLER_79_501
*12507 FILLER_79_508
*12508 FILLER_79_515
*12509 FILLER_79_522
*12510 FILLER_79_529
*12511 FILLER_79_53
*12512 FILLER_79_536
*12513 FILLER_79_543
*12514 FILLER_79_550
*12515 FILLER_79_557
*12516 FILLER_79_564
*12517 FILLER_79_571
*12518 FILLER_79_578
*12519 FILLER_79_585
*12520 FILLER_79_592
*12521 FILLER_79_599
*12522 FILLER_79_60
*12523 FILLER_79_606
*12524 FILLER_79_613
*12525 FILLER_79_620
*12526 FILLER_79_627
*12527 FILLER_79_634
*12528 FILLER_79_641
*12529 FILLER_79_648
*12530 FILLER_79_655
*12531 FILLER_79_662
*12532 FILLER_79_669
*12533 FILLER_79_67
*12534 FILLER_79_676
*12535 FILLER_79_683
*12536 FILLER_79_690
*12537 FILLER_79_697
*12538 FILLER_79_704
*12539 FILLER_79_711
*12540 FILLER_79_718
*12541 FILLER_79_725
*12542 FILLER_79_732
*12543 FILLER_79_739
*12544 FILLER_79_74
*12545 FILLER_79_746
*12546 FILLER_79_753
*12547 FILLER_79_760
*12548 FILLER_79_767
*12549 FILLER_79_774
*12550 FILLER_79_781
*12551 FILLER_79_788
*12552 FILLER_79_795
*12553 FILLER_79_802
*12554 FILLER_79_809
*12555 FILLER_79_81
*12556 FILLER_79_816
*12557 FILLER_79_823
*12558 FILLER_79_830
*12559 FILLER_79_837
*12560 FILLER_79_844
*12561 FILLER_79_851
*12562 FILLER_79_858
*12563 FILLER_79_865
*12564 FILLER_79_872
*12565 FILLER_79_879
*12566 FILLER_79_88
*12567 FILLER_79_886
*12568 FILLER_79_893
*12569 FILLER_79_900
*12570 FILLER_79_907
*12571 FILLER_79_914
*12572 FILLER_79_921
*12573 FILLER_79_928
*12574 FILLER_79_935
*12575 FILLER_79_942
*12576 FILLER_79_949
*12577 FILLER_79_95
*12578 FILLER_79_956
*12579 FILLER_79_963
*12580 FILLER_79_970
*12581 FILLER_79_977
*12582 FILLER_79_984
*12583 FILLER_79_991
*12584 FILLER_79_998
*12585 FILLER_7_0
*12586 FILLER_7_1001
*12587 FILLER_7_1008
*12588 FILLER_7_1015
*12589 FILLER_7_1022
*12590 FILLER_7_105
*12591 FILLER_7_112
*12592 FILLER_7_119
*12593 FILLER_7_126
*12594 FILLER_7_133
*12595 FILLER_7_14
*12596 FILLER_7_140
*12597 FILLER_7_147
*12598 FILLER_7_154
*12599 FILLER_7_161
*12600 FILLER_7_168
*12601 FILLER_7_175
*12602 FILLER_7_182
*12603 FILLER_7_189
*12604 FILLER_7_196
*12605 FILLER_7_203
*12606 FILLER_7_21
*12607 FILLER_7_210
*12608 FILLER_7_217
*12609 FILLER_7_224
*12610 FILLER_7_231
*12611 FILLER_7_238
*12612 FILLER_7_245
*12613 FILLER_7_252
*12614 FILLER_7_259
*12615 FILLER_7_266
*12616 FILLER_7_273
*12617 FILLER_7_28
*12618 FILLER_7_280
*12619 FILLER_7_287
*12620 FILLER_7_294
*12621 FILLER_7_301
*12622 FILLER_7_308
*12623 FILLER_7_315
*12624 FILLER_7_322
*12625 FILLER_7_329
*12626 FILLER_7_336
*12627 FILLER_7_343
*12628 FILLER_7_35
*12629 FILLER_7_350
*12630 FILLER_7_357
*12631 FILLER_7_364
*12632 FILLER_7_371
*12633 FILLER_7_378
*12634 FILLER_7_385
*12635 FILLER_7_392
*12636 FILLER_7_399
*12637 FILLER_7_406
*12638 FILLER_7_413
*12639 FILLER_7_42
*12640 FILLER_7_420
*12641 FILLER_7_427
*12642 FILLER_7_434
*12643 FILLER_7_441
*12644 FILLER_7_448
*12645 FILLER_7_455
*12646 FILLER_7_462
*12647 FILLER_7_469
*12648 FILLER_7_476
*12649 FILLER_7_483
*12650 FILLER_7_49
*12651 FILLER_7_490
*12652 FILLER_7_497
*12653 FILLER_7_504
*12654 FILLER_7_511
*12655 FILLER_7_518
*12656 FILLER_7_525
*12657 FILLER_7_532
*12658 FILLER_7_539
*12659 FILLER_7_546
*12660 FILLER_7_553
*12661 FILLER_7_56
*12662 FILLER_7_560
*12663 FILLER_7_567
*12664 FILLER_7_574
*12665 FILLER_7_581
*12666 FILLER_7_588
*12667 FILLER_7_595
*12668 FILLER_7_602
*12669 FILLER_7_609
*12670 FILLER_7_616
*12671 FILLER_7_623
*12672 FILLER_7_63
*12673 FILLER_7_630
*12674 FILLER_7_637
*12675 FILLER_7_644
*12676 FILLER_7_651
*12677 FILLER_7_658
*12678 FILLER_7_665
*12679 FILLER_7_672
*12680 FILLER_7_679
*12681 FILLER_7_686
*12682 FILLER_7_693
*12683 FILLER_7_7
*12684 FILLER_7_70
*12685 FILLER_7_700
*12686 FILLER_7_707
*12687 FILLER_7_714
*12688 FILLER_7_721
*12689 FILLER_7_728
*12690 FILLER_7_735
*12691 FILLER_7_742
*12692 FILLER_7_749
*12693 FILLER_7_756
*12694 FILLER_7_763
*12695 FILLER_7_77
*12696 FILLER_7_770
*12697 FILLER_7_777
*12698 FILLER_7_784
*12699 FILLER_7_791
*12700 FILLER_7_798
*12701 FILLER_7_805
*12702 FILLER_7_812
*12703 FILLER_7_819
*12704 FILLER_7_826
*12705 FILLER_7_833
*12706 FILLER_7_84
*12707 FILLER_7_840
*12708 FILLER_7_847
*12709 FILLER_7_854
*12710 FILLER_7_861
*12711 FILLER_7_868
*12712 FILLER_7_875
*12713 FILLER_7_882
*12714 FILLER_7_889
*12715 FILLER_7_896
*12716 FILLER_7_903
*12717 FILLER_7_91
*12718 FILLER_7_910
*12719 FILLER_7_917
*12720 FILLER_7_924
*12721 FILLER_7_931
*12722 FILLER_7_938
*12723 FILLER_7_945
*12724 FILLER_7_952
*12725 FILLER_7_959
*12726 FILLER_7_966
*12727 FILLER_7_973
*12728 FILLER_7_98
*12729 FILLER_7_980
*12730 FILLER_7_987
*12731 FILLER_7_994
*12732 FILLER_80_1000
*12733 FILLER_80_1007
*12734 FILLER_80_1014
*12735 FILLER_80_1021
*12736 FILLER_80_1028
*12737 FILLER_80_104
*12738 FILLER_80_11
*12739 FILLER_80_111
*12740 FILLER_80_118
*12741 FILLER_80_125
*12742 FILLER_80_132
*12743 FILLER_80_139
*12744 FILLER_80_146
*12745 FILLER_80_153
*12746 FILLER_80_160
*12747 FILLER_80_167
*12748 FILLER_80_174
*12749 FILLER_80_18
*12750 FILLER_80_181
*12751 FILLER_80_188
*12752 FILLER_80_195
*12753 FILLER_80_202
*12754 FILLER_80_209
*12755 FILLER_80_216
*12756 FILLER_80_223
*12757 FILLER_80_230
*12758 FILLER_80_237
*12759 FILLER_80_244
*12760 FILLER_80_25
*12761 FILLER_80_251
*12762 FILLER_80_258
*12763 FILLER_80_265
*12764 FILLER_80_272
*12765 FILLER_80_279
*12766 FILLER_80_286
*12767 FILLER_80_293
*12768 FILLER_80_300
*12769 FILLER_80_307
*12770 FILLER_80_314
*12771 FILLER_80_32
*12772 FILLER_80_321
*12773 FILLER_80_328
*12774 FILLER_80_335
*12775 FILLER_80_342
*12776 FILLER_80_349
*12777 FILLER_80_356
*12778 FILLER_80_363
*12779 FILLER_80_370
*12780 FILLER_80_377
*12781 FILLER_80_384
*12782 FILLER_80_39
*12783 FILLER_80_391
*12784 FILLER_80_398
*12785 FILLER_80_4
*12786 FILLER_80_405
*12787 FILLER_80_412
*12788 FILLER_80_419
*12789 FILLER_80_426
*12790 FILLER_80_433
*12791 FILLER_80_440
*12792 FILLER_80_447
*12793 FILLER_80_454
*12794 FILLER_80_46
*12795 FILLER_80_461
*12796 FILLER_80_468
*12797 FILLER_80_475
*12798 FILLER_80_482
*12799 FILLER_80_489
*12800 FILLER_80_496
*12801 FILLER_80_503
*12802 FILLER_80_510
*12803 FILLER_80_517
*12804 FILLER_80_524
*12805 FILLER_80_531
*12806 FILLER_80_538
*12807 FILLER_80_545
*12808 FILLER_80_55
*12809 FILLER_80_552
*12810 FILLER_80_559
*12811 FILLER_80_566
*12812 FILLER_80_573
*12813 FILLER_80_580
*12814 FILLER_80_587
*12815 FILLER_80_594
*12816 FILLER_80_601
*12817 FILLER_80_608
*12818 FILLER_80_615
*12819 FILLER_80_62
*12820 FILLER_80_622
*12821 FILLER_80_629
*12822 FILLER_80_636
*12823 FILLER_80_643
*12824 FILLER_80_650
*12825 FILLER_80_657
*12826 FILLER_80_664
*12827 FILLER_80_671
*12828 FILLER_80_678
*12829 FILLER_80_685
*12830 FILLER_80_69
*12831 FILLER_80_692
*12832 FILLER_80_699
*12833 FILLER_80_706
*12834 FILLER_80_713
*12835 FILLER_80_720
*12836 FILLER_80_727
*12837 FILLER_80_734
*12838 FILLER_80_741
*12839 FILLER_80_748
*12840 FILLER_80_755
*12841 FILLER_80_76
*12842 FILLER_80_762
*12843 FILLER_80_769
*12844 FILLER_80_776
*12845 FILLER_80_783
*12846 FILLER_80_790
*12847 FILLER_80_797
*12848 FILLER_80_804
*12849 FILLER_80_811
*12850 FILLER_80_818
*12851 FILLER_80_825
*12852 FILLER_80_83
*12853 FILLER_80_832
*12854 FILLER_80_839
*12855 FILLER_80_846
*12856 FILLER_80_853
*12857 FILLER_80_860
*12858 FILLER_80_867
*12859 FILLER_80_874
*12860 FILLER_80_881
*12861 FILLER_80_888
*12862 FILLER_80_895
*12863 FILLER_80_90
*12864 FILLER_80_902
*12865 FILLER_80_909
*12866 FILLER_80_916
*12867 FILLER_80_923
*12868 FILLER_80_930
*12869 FILLER_80_937
*12870 FILLER_80_944
*12871 FILLER_80_951
*12872 FILLER_80_958
*12873 FILLER_80_965
*12874 FILLER_80_97
*12875 FILLER_80_972
*12876 FILLER_80_979
*12877 FILLER_80_986
*12878 FILLER_80_993
*12879 FILLER_81_0
*12880 FILLER_81_1001
*12881 FILLER_81_1008
*12882 FILLER_81_1015
*12883 FILLER_81_1022
*12884 FILLER_81_105
*12885 FILLER_81_112
*12886 FILLER_81_119
*12887 FILLER_81_126
*12888 FILLER_81_133
*12889 FILLER_81_14
*12890 FILLER_81_140
*12891 FILLER_81_147
*12892 FILLER_81_154
*12893 FILLER_81_161
*12894 FILLER_81_168
*12895 FILLER_81_175
*12896 FILLER_81_182
*12897 FILLER_81_189
*12898 FILLER_81_196
*12899 FILLER_81_203
*12900 FILLER_81_21
*12901 FILLER_81_210
*12902 FILLER_81_217
*12903 FILLER_81_224
*12904 FILLER_81_231
*12905 FILLER_81_238
*12906 FILLER_81_245
*12907 FILLER_81_252
*12908 FILLER_81_259
*12909 FILLER_81_266
*12910 FILLER_81_273
*12911 FILLER_81_28
*12912 FILLER_81_280
*12913 FILLER_81_287
*12914 FILLER_81_294
*12915 FILLER_81_301
*12916 FILLER_81_308
*12917 FILLER_81_315
*12918 FILLER_81_322
*12919 FILLER_81_329
*12920 FILLER_81_336
*12921 FILLER_81_343
*12922 FILLER_81_35
*12923 FILLER_81_350
*12924 FILLER_81_357
*12925 FILLER_81_364
*12926 FILLER_81_371
*12927 FILLER_81_378
*12928 FILLER_81_385
*12929 FILLER_81_392
*12930 FILLER_81_399
*12931 FILLER_81_406
*12932 FILLER_81_413
*12933 FILLER_81_42
*12934 FILLER_81_420
*12935 FILLER_81_427
*12936 FILLER_81_434
*12937 FILLER_81_441
*12938 FILLER_81_448
*12939 FILLER_81_455
*12940 FILLER_81_462
*12941 FILLER_81_469
*12942 FILLER_81_476
*12943 FILLER_81_483
*12944 FILLER_81_49
*12945 FILLER_81_490
*12946 FILLER_81_497
*12947 FILLER_81_504
*12948 FILLER_81_511
*12949 FILLER_81_518
*12950 FILLER_81_525
*12951 FILLER_81_532
*12952 FILLER_81_539
*12953 FILLER_81_546
*12954 FILLER_81_553
*12955 FILLER_81_56
*12956 FILLER_81_560
*12957 FILLER_81_567
*12958 FILLER_81_574
*12959 FILLER_81_581
*12960 FILLER_81_588
*12961 FILLER_81_595
*12962 FILLER_81_602
*12963 FILLER_81_609
*12964 FILLER_81_616
*12965 FILLER_81_623
*12966 FILLER_81_63
*12967 FILLER_81_630
*12968 FILLER_81_637
*12969 FILLER_81_644
*12970 FILLER_81_651
*12971 FILLER_81_658
*12972 FILLER_81_665
*12973 FILLER_81_672
*12974 FILLER_81_679
*12975 FILLER_81_686
*12976 FILLER_81_693
*12977 FILLER_81_7
*12978 FILLER_81_70
*12979 FILLER_81_700
*12980 FILLER_81_707
*12981 FILLER_81_714
*12982 FILLER_81_721
*12983 FILLER_81_728
*12984 FILLER_81_735
*12985 FILLER_81_742
*12986 FILLER_81_749
*12987 FILLER_81_756
*12988 FILLER_81_763
*12989 FILLER_81_77
*12990 FILLER_81_770
*12991 FILLER_81_777
*12992 FILLER_81_784
*12993 FILLER_81_791
*12994 FILLER_81_798
*12995 FILLER_81_805
*12996 FILLER_81_812
*12997 FILLER_81_819
*12998 FILLER_81_826
*12999 FILLER_81_833
*13000 FILLER_81_84
*13001 FILLER_81_840
*13002 FILLER_81_847
*13003 FILLER_81_854
*13004 FILLER_81_861
*13005 FILLER_81_868
*13006 FILLER_81_875
*13007 FILLER_81_882
*13008 FILLER_81_889
*13009 FILLER_81_896
*13010 FILLER_81_903
*13011 FILLER_81_91
*13012 FILLER_81_910
*13013 FILLER_81_917
*13014 FILLER_81_924
*13015 FILLER_81_931
*13016 FILLER_81_938
*13017 FILLER_81_945
*13018 FILLER_81_952
*13019 FILLER_81_959
*13020 FILLER_81_966
*13021 FILLER_81_973
*13022 FILLER_81_98
*13023 FILLER_81_980
*13024 FILLER_81_987
*13025 FILLER_81_994
*13026 FILLER_82_1005
*13027 FILLER_82_1012
*13028 FILLER_82_1019
*13029 FILLER_82_102
*13030 FILLER_82_1026
*13031 FILLER_82_1028
*13032 FILLER_82_109
*13033 FILLER_82_11
*13034 FILLER_82_116
*13035 FILLER_82_123
*13036 FILLER_82_13
*13037 FILLER_82_130
*13038 FILLER_82_137
*13039 FILLER_82_144
*13040 FILLER_82_151
*13041 FILLER_82_158
*13042 FILLER_82_165
*13043 FILLER_82_172
*13044 FILLER_82_179
*13045 FILLER_82_186
*13046 FILLER_82_193
*13047 FILLER_82_200
*13048 FILLER_82_207
*13049 FILLER_82_214
*13050 FILLER_82_221
*13051 FILLER_82_228
*13052 FILLER_82_235
*13053 FILLER_82_242
*13054 FILLER_82_249
*13055 FILLER_82_256
*13056 FILLER_82_263
*13057 FILLER_82_27
*13058 FILLER_82_270
*13059 FILLER_82_277
*13060 FILLER_82_284
*13061 FILLER_82_291
*13062 FILLER_82_298
*13063 FILLER_82_305
*13064 FILLER_82_312
*13065 FILLER_82_319
*13066 FILLER_82_326
*13067 FILLER_82_333
*13068 FILLER_82_34
*13069 FILLER_82_340
*13070 FILLER_82_347
*13071 FILLER_82_354
*13072 FILLER_82_361
*13073 FILLER_82_368
*13074 FILLER_82_375
*13075 FILLER_82_382
*13076 FILLER_82_389
*13077 FILLER_82_396
*13078 FILLER_82_4
*13079 FILLER_82_403
*13080 FILLER_82_41
*13081 FILLER_82_410
*13082 FILLER_82_417
*13083 FILLER_82_424
*13084 FILLER_82_431
*13085 FILLER_82_438
*13086 FILLER_82_445
*13087 FILLER_82_45
*13088 FILLER_82_452
*13089 FILLER_82_459
*13090 FILLER_82_466
*13091 FILLER_82_473
*13092 FILLER_82_480
*13093 FILLER_82_487
*13094 FILLER_82_494
*13095 FILLER_82_501
*13096 FILLER_82_508
*13097 FILLER_82_515
*13098 FILLER_82_522
*13099 FILLER_82_529
*13100 FILLER_82_536
*13101 FILLER_82_543
*13102 FILLER_82_550
*13103 FILLER_82_557
*13104 FILLER_82_564
*13105 FILLER_82_571
*13106 FILLER_82_578
*13107 FILLER_82_585
*13108 FILLER_82_592
*13109 FILLER_82_599
*13110 FILLER_82_60
*13111 FILLER_82_606
*13112 FILLER_82_613
*13113 FILLER_82_620
*13114 FILLER_82_627
*13115 FILLER_82_634
*13116 FILLER_82_641
*13117 FILLER_82_648
*13118 FILLER_82_655
*13119 FILLER_82_662
*13120 FILLER_82_669
*13121 FILLER_82_67
*13122 FILLER_82_676
*13123 FILLER_82_683
*13124 FILLER_82_690
*13125 FILLER_82_697
*13126 FILLER_82_704
*13127 FILLER_82_711
*13128 FILLER_82_718
*13129 FILLER_82_725
*13130 FILLER_82_732
*13131 FILLER_82_739
*13132 FILLER_82_74
*13133 FILLER_82_746
*13134 FILLER_82_753
*13135 FILLER_82_760
*13136 FILLER_82_767
*13137 FILLER_82_774
*13138 FILLER_82_781
*13139 FILLER_82_788
*13140 FILLER_82_795
*13141 FILLER_82_802
*13142 FILLER_82_809
*13143 FILLER_82_81
*13144 FILLER_82_816
*13145 FILLER_82_823
*13146 FILLER_82_830
*13147 FILLER_82_837
*13148 FILLER_82_844
*13149 FILLER_82_851
*13150 FILLER_82_858
*13151 FILLER_82_865
*13152 FILLER_82_872
*13153 FILLER_82_879
*13154 FILLER_82_88
*13155 FILLER_82_886
*13156 FILLER_82_893
*13157 FILLER_82_900
*13158 FILLER_82_907
*13159 FILLER_82_914
*13160 FILLER_82_921
*13161 FILLER_82_928
*13162 FILLER_82_935
*13163 FILLER_82_942
*13164 FILLER_82_949
*13165 FILLER_82_95
*13166 FILLER_82_956
*13167 FILLER_82_963
*13168 FILLER_82_970
*13169 FILLER_82_977
*13170 FILLER_82_984
*13171 FILLER_82_991
*13172 FILLER_82_998
*13173 FILLER_83_100
*13174 FILLER_83_1003
*13175 FILLER_83_1010
*13176 FILLER_83_1017
*13177 FILLER_83_1024
*13178 FILLER_83_1028
*13179 FILLER_83_107
*13180 FILLER_83_11
*13181 FILLER_83_114
*13182 FILLER_83_121
*13183 FILLER_83_128
*13184 FILLER_83_135
*13185 FILLER_83_142
*13186 FILLER_83_149
*13187 FILLER_83_156
*13188 FILLER_83_163
*13189 FILLER_83_170
*13190 FILLER_83_177
*13191 FILLER_83_18
*13192 FILLER_83_184
*13193 FILLER_83_191
*13194 FILLER_83_198
*13195 FILLER_83_205
*13196 FILLER_83_212
*13197 FILLER_83_219
*13198 FILLER_83_226
*13199 FILLER_83_233
*13200 FILLER_83_240
*13201 FILLER_83_247
*13202 FILLER_83_25
*13203 FILLER_83_254
*13204 FILLER_83_261
*13205 FILLER_83_268
*13206 FILLER_83_275
*13207 FILLER_83_282
*13208 FILLER_83_289
*13209 FILLER_83_296
*13210 FILLER_83_303
*13211 FILLER_83_310
*13212 FILLER_83_317
*13213 FILLER_83_32
*13214 FILLER_83_324
*13215 FILLER_83_331
*13216 FILLER_83_338
*13217 FILLER_83_345
*13218 FILLER_83_352
*13219 FILLER_83_359
*13220 FILLER_83_366
*13221 FILLER_83_373
*13222 FILLER_83_380
*13223 FILLER_83_387
*13224 FILLER_83_39
*13225 FILLER_83_394
*13226 FILLER_83_4
*13227 FILLER_83_401
*13228 FILLER_83_408
*13229 FILLER_83_415
*13230 FILLER_83_422
*13231 FILLER_83_429
*13232 FILLER_83_436
*13233 FILLER_83_443
*13234 FILLER_83_450
*13235 FILLER_83_457
*13236 FILLER_83_464
*13237 FILLER_83_471
*13238 FILLER_83_478
*13239 FILLER_83_485
*13240 FILLER_83_492
*13241 FILLER_83_499
*13242 FILLER_83_506
*13243 FILLER_83_51
*13244 FILLER_83_513
*13245 FILLER_83_520
*13246 FILLER_83_527
*13247 FILLER_83_534
*13248 FILLER_83_541
*13249 FILLER_83_548
*13250 FILLER_83_555
*13251 FILLER_83_562
*13252 FILLER_83_569
*13253 FILLER_83_576
*13254 FILLER_83_58
*13255 FILLER_83_583
*13256 FILLER_83_590
*13257 FILLER_83_597
*13258 FILLER_83_604
*13259 FILLER_83_611
*13260 FILLER_83_618
*13261 FILLER_83_625
*13262 FILLER_83_632
*13263 FILLER_83_639
*13264 FILLER_83_646
*13265 FILLER_83_65
*13266 FILLER_83_653
*13267 FILLER_83_660
*13268 FILLER_83_667
*13269 FILLER_83_674
*13270 FILLER_83_681
*13271 FILLER_83_688
*13272 FILLER_83_695
*13273 FILLER_83_702
*13274 FILLER_83_709
*13275 FILLER_83_716
*13276 FILLER_83_72
*13277 FILLER_83_723
*13278 FILLER_83_730
*13279 FILLER_83_737
*13280 FILLER_83_744
*13281 FILLER_83_751
*13282 FILLER_83_758
*13283 FILLER_83_765
*13284 FILLER_83_772
*13285 FILLER_83_779
*13286 FILLER_83_786
*13287 FILLER_83_79
*13288 FILLER_83_793
*13289 FILLER_83_800
*13290 FILLER_83_807
*13291 FILLER_83_814
*13292 FILLER_83_821
*13293 FILLER_83_828
*13294 FILLER_83_835
*13295 FILLER_83_842
*13296 FILLER_83_849
*13297 FILLER_83_856
*13298 FILLER_83_86
*13299 FILLER_83_863
*13300 FILLER_83_870
*13301 FILLER_83_877
*13302 FILLER_83_884
*13303 FILLER_83_891
*13304 FILLER_83_898
*13305 FILLER_83_905
*13306 FILLER_83_912
*13307 FILLER_83_919
*13308 FILLER_83_926
*13309 FILLER_83_93
*13310 FILLER_83_933
*13311 FILLER_83_940
*13312 FILLER_83_947
*13313 FILLER_83_954
*13314 FILLER_83_961
*13315 FILLER_83_968
*13316 FILLER_83_975
*13317 FILLER_83_982
*13318 FILLER_83_989
*13319 FILLER_83_996
*13320 FILLER_84_1005
*13321 FILLER_84_1012
*13322 FILLER_84_1019
*13323 FILLER_84_102
*13324 FILLER_84_1026
*13325 FILLER_84_1028
*13326 FILLER_84_109
*13327 FILLER_84_11
*13328 FILLER_84_116
*13329 FILLER_84_123
*13330 FILLER_84_130
*13331 FILLER_84_137
*13332 FILLER_84_144
*13333 FILLER_84_151
*13334 FILLER_84_158
*13335 FILLER_84_165
*13336 FILLER_84_172
*13337 FILLER_84_179
*13338 FILLER_84_18
*13339 FILLER_84_186
*13340 FILLER_84_193
*13341 FILLER_84_200
*13342 FILLER_84_207
*13343 FILLER_84_214
*13344 FILLER_84_221
*13345 FILLER_84_228
*13346 FILLER_84_235
*13347 FILLER_84_242
*13348 FILLER_84_249
*13349 FILLER_84_256
*13350 FILLER_84_263
*13351 FILLER_84_27
*13352 FILLER_84_270
*13353 FILLER_84_277
*13354 FILLER_84_284
*13355 FILLER_84_291
*13356 FILLER_84_298
*13357 FILLER_84_305
*13358 FILLER_84_312
*13359 FILLER_84_319
*13360 FILLER_84_326
*13361 FILLER_84_333
*13362 FILLER_84_34
*13363 FILLER_84_340
*13364 FILLER_84_347
*13365 FILLER_84_354
*13366 FILLER_84_361
*13367 FILLER_84_368
*13368 FILLER_84_375
*13369 FILLER_84_382
*13370 FILLER_84_389
*13371 FILLER_84_396
*13372 FILLER_84_4
*13373 FILLER_84_403
*13374 FILLER_84_41
*13375 FILLER_84_410
*13376 FILLER_84_417
*13377 FILLER_84_424
*13378 FILLER_84_431
*13379 FILLER_84_438
*13380 FILLER_84_445
*13381 FILLER_84_452
*13382 FILLER_84_459
*13383 FILLER_84_466
*13384 FILLER_84_473
*13385 FILLER_84_48
*13386 FILLER_84_480
*13387 FILLER_84_487
*13388 FILLER_84_494
*13389 FILLER_84_501
*13390 FILLER_84_508
*13391 FILLER_84_515
*13392 FILLER_84_522
*13393 FILLER_84_529
*13394 FILLER_84_536
*13395 FILLER_84_543
*13396 FILLER_84_550
*13397 FILLER_84_557
*13398 FILLER_84_564
*13399 FILLER_84_571
*13400 FILLER_84_578
*13401 FILLER_84_585
*13402 FILLER_84_592
*13403 FILLER_84_599
*13404 FILLER_84_60
*13405 FILLER_84_606
*13406 FILLER_84_613
*13407 FILLER_84_620
*13408 FILLER_84_627
*13409 FILLER_84_634
*13410 FILLER_84_641
*13411 FILLER_84_648
*13412 FILLER_84_655
*13413 FILLER_84_662
*13414 FILLER_84_669
*13415 FILLER_84_67
*13416 FILLER_84_676
*13417 FILLER_84_683
*13418 FILLER_84_690
*13419 FILLER_84_697
*13420 FILLER_84_704
*13421 FILLER_84_711
*13422 FILLER_84_718
*13423 FILLER_84_725
*13424 FILLER_84_732
*13425 FILLER_84_739
*13426 FILLER_84_74
*13427 FILLER_84_746
*13428 FILLER_84_753
*13429 FILLER_84_760
*13430 FILLER_84_767
*13431 FILLER_84_774
*13432 FILLER_84_781
*13433 FILLER_84_788
*13434 FILLER_84_795
*13435 FILLER_84_802
*13436 FILLER_84_809
*13437 FILLER_84_81
*13438 FILLER_84_816
*13439 FILLER_84_823
*13440 FILLER_84_830
*13441 FILLER_84_837
*13442 FILLER_84_844
*13443 FILLER_84_851
*13444 FILLER_84_858
*13445 FILLER_84_865
*13446 FILLER_84_872
*13447 FILLER_84_879
*13448 FILLER_84_88
*13449 FILLER_84_886
*13450 FILLER_84_893
*13451 FILLER_84_900
*13452 FILLER_84_907
*13453 FILLER_84_914
*13454 FILLER_84_921
*13455 FILLER_84_928
*13456 FILLER_84_935
*13457 FILLER_84_942
*13458 FILLER_84_949
*13459 FILLER_84_95
*13460 FILLER_84_956
*13461 FILLER_84_963
*13462 FILLER_84_970
*13463 FILLER_84_977
*13464 FILLER_84_984
*13465 FILLER_84_991
*13466 FILLER_84_998
*13467 FILLER_85_1004
*13468 FILLER_85_101
*13469 FILLER_85_1011
*13470 FILLER_85_1018
*13471 FILLER_85_1025
*13472 FILLER_85_108
*13473 FILLER_85_11
*13474 FILLER_85_115
*13475 FILLER_85_122
*13476 FILLER_85_129
*13477 FILLER_85_136
*13478 FILLER_85_143
*13479 FILLER_85_150
*13480 FILLER_85_157
*13481 FILLER_85_164
*13482 FILLER_85_171
*13483 FILLER_85_178
*13484 FILLER_85_18
*13485 FILLER_85_185
*13486 FILLER_85_192
*13487 FILLER_85_199
*13488 FILLER_85_206
*13489 FILLER_85_213
*13490 FILLER_85_220
*13491 FILLER_85_227
*13492 FILLER_85_234
*13493 FILLER_85_241
*13494 FILLER_85_248
*13495 FILLER_85_25
*13496 FILLER_85_255
*13497 FILLER_85_262
*13498 FILLER_85_269
*13499 FILLER_85_276
*13500 FILLER_85_283
*13501 FILLER_85_290
*13502 FILLER_85_297
*13503 FILLER_85_304
*13504 FILLER_85_311
*13505 FILLER_85_318
*13506 FILLER_85_32
*13507 FILLER_85_325
*13508 FILLER_85_332
*13509 FILLER_85_339
*13510 FILLER_85_346
*13511 FILLER_85_353
*13512 FILLER_85_360
*13513 FILLER_85_367
*13514 FILLER_85_374
*13515 FILLER_85_381
*13516 FILLER_85_388
*13517 FILLER_85_39
*13518 FILLER_85_395
*13519 FILLER_85_4
*13520 FILLER_85_402
*13521 FILLER_85_409
*13522 FILLER_85_416
*13523 FILLER_85_423
*13524 FILLER_85_430
*13525 FILLER_85_437
*13526 FILLER_85_444
*13527 FILLER_85_451
*13528 FILLER_85_458
*13529 FILLER_85_46
*13530 FILLER_85_465
*13531 FILLER_85_472
*13532 FILLER_85_479
*13533 FILLER_85_486
*13534 FILLER_85_493
*13535 FILLER_85_50
*13536 FILLER_85_500
*13537 FILLER_85_507
*13538 FILLER_85_514
*13539 FILLER_85_521
*13540 FILLER_85_528
*13541 FILLER_85_535
*13542 FILLER_85_542
*13543 FILLER_85_549
*13544 FILLER_85_556
*13545 FILLER_85_563
*13546 FILLER_85_570
*13547 FILLER_85_577
*13548 FILLER_85_584
*13549 FILLER_85_591
*13550 FILLER_85_598
*13551 FILLER_85_605
*13552 FILLER_85_612
*13553 FILLER_85_619
*13554 FILLER_85_626
*13555 FILLER_85_633
*13556 FILLER_85_640
*13557 FILLER_85_647
*13558 FILLER_85_654
*13559 FILLER_85_66
*13560 FILLER_85_661
*13561 FILLER_85_668
*13562 FILLER_85_675
*13563 FILLER_85_682
*13564 FILLER_85_689
*13565 FILLER_85_696
*13566 FILLER_85_703
*13567 FILLER_85_710
*13568 FILLER_85_717
*13569 FILLER_85_724
*13570 FILLER_85_73
*13571 FILLER_85_731
*13572 FILLER_85_738
*13573 FILLER_85_745
*13574 FILLER_85_752
*13575 FILLER_85_759
*13576 FILLER_85_766
*13577 FILLER_85_773
*13578 FILLER_85_780
*13579 FILLER_85_787
*13580 FILLER_85_794
*13581 FILLER_85_80
*13582 FILLER_85_801
*13583 FILLER_85_808
*13584 FILLER_85_815
*13585 FILLER_85_822
*13586 FILLER_85_829
*13587 FILLER_85_836
*13588 FILLER_85_843
*13589 FILLER_85_850
*13590 FILLER_85_857
*13591 FILLER_85_864
*13592 FILLER_85_87
*13593 FILLER_85_871
*13594 FILLER_85_878
*13595 FILLER_85_885
*13596 FILLER_85_892
*13597 FILLER_85_899
*13598 FILLER_85_906
*13599 FILLER_85_913
*13600 FILLER_85_920
*13601 FILLER_85_927
*13602 FILLER_85_934
*13603 FILLER_85_94
*13604 FILLER_85_941
*13605 FILLER_85_948
*13606 FILLER_85_955
*13607 FILLER_85_962
*13608 FILLER_85_969
*13609 FILLER_85_976
*13610 FILLER_85_983
*13611 FILLER_85_990
*13612 FILLER_85_997
*13613 FILLER_86_1005
*13614 FILLER_86_1012
*13615 FILLER_86_1019
*13616 FILLER_86_102
*13617 FILLER_86_1026
*13618 FILLER_86_1028
*13619 FILLER_86_109
*13620 FILLER_86_11
*13621 FILLER_86_116
*13622 FILLER_86_123
*13623 FILLER_86_130
*13624 FILLER_86_137
*13625 FILLER_86_144
*13626 FILLER_86_151
*13627 FILLER_86_158
*13628 FILLER_86_165
*13629 FILLER_86_172
*13630 FILLER_86_179
*13631 FILLER_86_18
*13632 FILLER_86_186
*13633 FILLER_86_193
*13634 FILLER_86_200
*13635 FILLER_86_207
*13636 FILLER_86_214
*13637 FILLER_86_221
*13638 FILLER_86_228
*13639 FILLER_86_235
*13640 FILLER_86_242
*13641 FILLER_86_249
*13642 FILLER_86_25
*13643 FILLER_86_256
*13644 FILLER_86_263
*13645 FILLER_86_270
*13646 FILLER_86_277
*13647 FILLER_86_284
*13648 FILLER_86_291
*13649 FILLER_86_298
*13650 FILLER_86_305
*13651 FILLER_86_312
*13652 FILLER_86_319
*13653 FILLER_86_32
*13654 FILLER_86_326
*13655 FILLER_86_333
*13656 FILLER_86_340
*13657 FILLER_86_347
*13658 FILLER_86_354
*13659 FILLER_86_361
*13660 FILLER_86_368
*13661 FILLER_86_375
*13662 FILLER_86_382
*13663 FILLER_86_389
*13664 FILLER_86_39
*13665 FILLER_86_396
*13666 FILLER_86_4
*13667 FILLER_86_403
*13668 FILLER_86_410
*13669 FILLER_86_417
*13670 FILLER_86_424
*13671 FILLER_86_431
*13672 FILLER_86_438
*13673 FILLER_86_445
*13674 FILLER_86_452
*13675 FILLER_86_459
*13676 FILLER_86_46
*13677 FILLER_86_466
*13678 FILLER_86_473
*13679 FILLER_86_480
*13680 FILLER_86_487
*13681 FILLER_86_494
*13682 FILLER_86_501
*13683 FILLER_86_508
*13684 FILLER_86_515
*13685 FILLER_86_522
*13686 FILLER_86_529
*13687 FILLER_86_53
*13688 FILLER_86_536
*13689 FILLER_86_543
*13690 FILLER_86_550
*13691 FILLER_86_557
*13692 FILLER_86_564
*13693 FILLER_86_571
*13694 FILLER_86_578
*13695 FILLER_86_585
*13696 FILLER_86_592
*13697 FILLER_86_599
*13698 FILLER_86_60
*13699 FILLER_86_606
*13700 FILLER_86_613
*13701 FILLER_86_620
*13702 FILLER_86_627
*13703 FILLER_86_634
*13704 FILLER_86_641
*13705 FILLER_86_648
*13706 FILLER_86_655
*13707 FILLER_86_662
*13708 FILLER_86_669
*13709 FILLER_86_67
*13710 FILLER_86_676
*13711 FILLER_86_683
*13712 FILLER_86_690
*13713 FILLER_86_697
*13714 FILLER_86_704
*13715 FILLER_86_711
*13716 FILLER_86_718
*13717 FILLER_86_725
*13718 FILLER_86_732
*13719 FILLER_86_739
*13720 FILLER_86_74
*13721 FILLER_86_746
*13722 FILLER_86_753
*13723 FILLER_86_760
*13724 FILLER_86_767
*13725 FILLER_86_774
*13726 FILLER_86_781
*13727 FILLER_86_788
*13728 FILLER_86_795
*13729 FILLER_86_802
*13730 FILLER_86_809
*13731 FILLER_86_81
*13732 FILLER_86_816
*13733 FILLER_86_823
*13734 FILLER_86_830
*13735 FILLER_86_837
*13736 FILLER_86_844
*13737 FILLER_86_851
*13738 FILLER_86_858
*13739 FILLER_86_865
*13740 FILLER_86_872
*13741 FILLER_86_879
*13742 FILLER_86_88
*13743 FILLER_86_886
*13744 FILLER_86_893
*13745 FILLER_86_900
*13746 FILLER_86_907
*13747 FILLER_86_914
*13748 FILLER_86_921
*13749 FILLER_86_928
*13750 FILLER_86_935
*13751 FILLER_86_942
*13752 FILLER_86_949
*13753 FILLER_86_95
*13754 FILLER_86_956
*13755 FILLER_86_963
*13756 FILLER_86_970
*13757 FILLER_86_977
*13758 FILLER_86_984
*13759 FILLER_86_991
*13760 FILLER_86_998
*13761 FILLER_87_1005
*13762 FILLER_87_1012
*13763 FILLER_87_1019
*13764 FILLER_87_102
*13765 FILLER_87_1026
*13766 FILLER_87_1028
*13767 FILLER_87_109
*13768 FILLER_87_11
*13769 FILLER_87_116
*13770 FILLER_87_123
*13771 FILLER_87_130
*13772 FILLER_87_137
*13773 FILLER_87_144
*13774 FILLER_87_151
*13775 FILLER_87_158
*13776 FILLER_87_165
*13777 FILLER_87_172
*13778 FILLER_87_179
*13779 FILLER_87_18
*13780 FILLER_87_186
*13781 FILLER_87_193
*13782 FILLER_87_200
*13783 FILLER_87_207
*13784 FILLER_87_214
*13785 FILLER_87_221
*13786 FILLER_87_228
*13787 FILLER_87_235
*13788 FILLER_87_242
*13789 FILLER_87_249
*13790 FILLER_87_25
*13791 FILLER_87_256
*13792 FILLER_87_263
*13793 FILLER_87_270
*13794 FILLER_87_277
*13795 FILLER_87_284
*13796 FILLER_87_291
*13797 FILLER_87_298
*13798 FILLER_87_305
*13799 FILLER_87_312
*13800 FILLER_87_319
*13801 FILLER_87_32
*13802 FILLER_87_326
*13803 FILLER_87_333
*13804 FILLER_87_340
*13805 FILLER_87_347
*13806 FILLER_87_354
*13807 FILLER_87_361
*13808 FILLER_87_368
*13809 FILLER_87_375
*13810 FILLER_87_382
*13811 FILLER_87_389
*13812 FILLER_87_39
*13813 FILLER_87_396
*13814 FILLER_87_4
*13815 FILLER_87_403
*13816 FILLER_87_410
*13817 FILLER_87_417
*13818 FILLER_87_424
*13819 FILLER_87_431
*13820 FILLER_87_438
*13821 FILLER_87_445
*13822 FILLER_87_452
*13823 FILLER_87_459
*13824 FILLER_87_46
*13825 FILLER_87_466
*13826 FILLER_87_473
*13827 FILLER_87_480
*13828 FILLER_87_487
*13829 FILLER_87_494
*13830 FILLER_87_501
*13831 FILLER_87_508
*13832 FILLER_87_515
*13833 FILLER_87_522
*13834 FILLER_87_529
*13835 FILLER_87_53
*13836 FILLER_87_536
*13837 FILLER_87_543
*13838 FILLER_87_550
*13839 FILLER_87_557
*13840 FILLER_87_564
*13841 FILLER_87_571
*13842 FILLER_87_578
*13843 FILLER_87_585
*13844 FILLER_87_592
*13845 FILLER_87_599
*13846 FILLER_87_60
*13847 FILLER_87_606
*13848 FILLER_87_613
*13849 FILLER_87_620
*13850 FILLER_87_627
*13851 FILLER_87_634
*13852 FILLER_87_641
*13853 FILLER_87_648
*13854 FILLER_87_655
*13855 FILLER_87_662
*13856 FILLER_87_669
*13857 FILLER_87_67
*13858 FILLER_87_676
*13859 FILLER_87_683
*13860 FILLER_87_690
*13861 FILLER_87_697
*13862 FILLER_87_704
*13863 FILLER_87_711
*13864 FILLER_87_718
*13865 FILLER_87_725
*13866 FILLER_87_732
*13867 FILLER_87_739
*13868 FILLER_87_74
*13869 FILLER_87_746
*13870 FILLER_87_753
*13871 FILLER_87_760
*13872 FILLER_87_767
*13873 FILLER_87_774
*13874 FILLER_87_781
*13875 FILLER_87_788
*13876 FILLER_87_795
*13877 FILLER_87_802
*13878 FILLER_87_809
*13879 FILLER_87_81
*13880 FILLER_87_816
*13881 FILLER_87_823
*13882 FILLER_87_830
*13883 FILLER_87_837
*13884 FILLER_87_844
*13885 FILLER_87_851
*13886 FILLER_87_858
*13887 FILLER_87_865
*13888 FILLER_87_872
*13889 FILLER_87_879
*13890 FILLER_87_88
*13891 FILLER_87_886
*13892 FILLER_87_893
*13893 FILLER_87_900
*13894 FILLER_87_907
*13895 FILLER_87_914
*13896 FILLER_87_921
*13897 FILLER_87_928
*13898 FILLER_87_935
*13899 FILLER_87_942
*13900 FILLER_87_949
*13901 FILLER_87_95
*13902 FILLER_87_956
*13903 FILLER_87_963
*13904 FILLER_87_970
*13905 FILLER_87_977
*13906 FILLER_87_984
*13907 FILLER_87_991
*13908 FILLER_87_998
*13909 FILLER_88_1005
*13910 FILLER_88_1012
*13911 FILLER_88_1019
*13912 FILLER_88_102
*13913 FILLER_88_1026
*13914 FILLER_88_1028
*13915 FILLER_88_109
*13916 FILLER_88_11
*13917 FILLER_88_116
*13918 FILLER_88_123
*13919 FILLER_88_130
*13920 FILLER_88_137
*13921 FILLER_88_144
*13922 FILLER_88_151
*13923 FILLER_88_158
*13924 FILLER_88_165
*13925 FILLER_88_172
*13926 FILLER_88_179
*13927 FILLER_88_18
*13928 FILLER_88_186
*13929 FILLER_88_193
*13930 FILLER_88_200
*13931 FILLER_88_207
*13932 FILLER_88_214
*13933 FILLER_88_22
*13934 FILLER_88_221
*13935 FILLER_88_228
*13936 FILLER_88_235
*13937 FILLER_88_242
*13938 FILLER_88_249
*13939 FILLER_88_256
*13940 FILLER_88_263
*13941 FILLER_88_270
*13942 FILLER_88_277
*13943 FILLER_88_284
*13944 FILLER_88_291
*13945 FILLER_88_298
*13946 FILLER_88_305
*13947 FILLER_88_312
*13948 FILLER_88_319
*13949 FILLER_88_32
*13950 FILLER_88_326
*13951 FILLER_88_333
*13952 FILLER_88_340
*13953 FILLER_88_347
*13954 FILLER_88_354
*13955 FILLER_88_361
*13956 FILLER_88_368
*13957 FILLER_88_375
*13958 FILLER_88_382
*13959 FILLER_88_389
*13960 FILLER_88_39
*13961 FILLER_88_396
*13962 FILLER_88_4
*13963 FILLER_88_403
*13964 FILLER_88_410
*13965 FILLER_88_417
*13966 FILLER_88_424
*13967 FILLER_88_431
*13968 FILLER_88_438
*13969 FILLER_88_445
*13970 FILLER_88_452
*13971 FILLER_88_459
*13972 FILLER_88_46
*13973 FILLER_88_466
*13974 FILLER_88_473
*13975 FILLER_88_480
*13976 FILLER_88_487
*13977 FILLER_88_494
*13978 FILLER_88_501
*13979 FILLER_88_508
*13980 FILLER_88_515
*13981 FILLER_88_522
*13982 FILLER_88_529
*13983 FILLER_88_53
*13984 FILLER_88_536
*13985 FILLER_88_543
*13986 FILLER_88_550
*13987 FILLER_88_557
*13988 FILLER_88_564
*13989 FILLER_88_571
*13990 FILLER_88_578
*13991 FILLER_88_585
*13992 FILLER_88_592
*13993 FILLER_88_599
*13994 FILLER_88_60
*13995 FILLER_88_606
*13996 FILLER_88_613
*13997 FILLER_88_620
*13998 FILLER_88_627
*13999 FILLER_88_634
*14000 FILLER_88_641
*14001 FILLER_88_648
*14002 FILLER_88_655
*14003 FILLER_88_662
*14004 FILLER_88_669
*14005 FILLER_88_67
*14006 FILLER_88_676
*14007 FILLER_88_683
*14008 FILLER_88_690
*14009 FILLER_88_697
*14010 FILLER_88_704
*14011 FILLER_88_711
*14012 FILLER_88_718
*14013 FILLER_88_725
*14014 FILLER_88_732
*14015 FILLER_88_739
*14016 FILLER_88_74
*14017 FILLER_88_746
*14018 FILLER_88_753
*14019 FILLER_88_760
*14020 FILLER_88_767
*14021 FILLER_88_774
*14022 FILLER_88_781
*14023 FILLER_88_788
*14024 FILLER_88_795
*14025 FILLER_88_802
*14026 FILLER_88_809
*14027 FILLER_88_81
*14028 FILLER_88_816
*14029 FILLER_88_823
*14030 FILLER_88_830
*14031 FILLER_88_837
*14032 FILLER_88_844
*14033 FILLER_88_851
*14034 FILLER_88_858
*14035 FILLER_88_865
*14036 FILLER_88_872
*14037 FILLER_88_879
*14038 FILLER_88_88
*14039 FILLER_88_886
*14040 FILLER_88_893
*14041 FILLER_88_900
*14042 FILLER_88_907
*14043 FILLER_88_914
*14044 FILLER_88_921
*14045 FILLER_88_928
*14046 FILLER_88_935
*14047 FILLER_88_942
*14048 FILLER_88_949
*14049 FILLER_88_95
*14050 FILLER_88_956
*14051 FILLER_88_963
*14052 FILLER_88_970
*14053 FILLER_88_977
*14054 FILLER_88_984
*14055 FILLER_88_991
*14056 FILLER_88_998
*14057 FILLER_89_1006
*14058 FILLER_89_1013
*14059 FILLER_89_1020
*14060 FILLER_89_1027
*14061 FILLER_89_103
*14062 FILLER_89_11
*14063 FILLER_89_110
*14064 FILLER_89_117
*14065 FILLER_89_124
*14066 FILLER_89_131
*14067 FILLER_89_138
*14068 FILLER_89_145
*14069 FILLER_89_152
*14070 FILLER_89_159
*14071 FILLER_89_166
*14072 FILLER_89_173
*14073 FILLER_89_18
*14074 FILLER_89_180
*14075 FILLER_89_187
*14076 FILLER_89_194
*14077 FILLER_89_201
*14078 FILLER_89_208
*14079 FILLER_89_215
*14080 FILLER_89_222
*14081 FILLER_89_229
*14082 FILLER_89_236
*14083 FILLER_89_243
*14084 FILLER_89_25
*14085 FILLER_89_250
*14086 FILLER_89_257
*14087 FILLER_89_264
*14088 FILLER_89_271
*14089 FILLER_89_278
*14090 FILLER_89_285
*14091 FILLER_89_292
*14092 FILLER_89_299
*14093 FILLER_89_306
*14094 FILLER_89_313
*14095 FILLER_89_320
*14096 FILLER_89_327
*14097 FILLER_89_33
*14098 FILLER_89_334
*14099 FILLER_89_341
*14100 FILLER_89_348
*14101 FILLER_89_355
*14102 FILLER_89_362
*14103 FILLER_89_369
*14104 FILLER_89_376
*14105 FILLER_89_383
*14106 FILLER_89_390
*14107 FILLER_89_397
*14108 FILLER_89_4
*14109 FILLER_89_40
*14110 FILLER_89_404
*14111 FILLER_89_411
*14112 FILLER_89_418
*14113 FILLER_89_425
*14114 FILLER_89_432
*14115 FILLER_89_439
*14116 FILLER_89_446
*14117 FILLER_89_453
*14118 FILLER_89_460
*14119 FILLER_89_467
*14120 FILLER_89_47
*14121 FILLER_89_474
*14122 FILLER_89_481
*14123 FILLER_89_488
*14124 FILLER_89_495
*14125 FILLER_89_502
*14126 FILLER_89_509
*14127 FILLER_89_516
*14128 FILLER_89_523
*14129 FILLER_89_530
*14130 FILLER_89_537
*14131 FILLER_89_54
*14132 FILLER_89_544
*14133 FILLER_89_551
*14134 FILLER_89_558
*14135 FILLER_89_565
*14136 FILLER_89_572
*14137 FILLER_89_579
*14138 FILLER_89_586
*14139 FILLER_89_593
*14140 FILLER_89_600
*14141 FILLER_89_607
*14142 FILLER_89_61
*14143 FILLER_89_614
*14144 FILLER_89_621
*14145 FILLER_89_628
*14146 FILLER_89_635
*14147 FILLER_89_642
*14148 FILLER_89_649
*14149 FILLER_89_656
*14150 FILLER_89_663
*14151 FILLER_89_670
*14152 FILLER_89_677
*14153 FILLER_89_68
*14154 FILLER_89_684
*14155 FILLER_89_691
*14156 FILLER_89_698
*14157 FILLER_89_705
*14158 FILLER_89_712
*14159 FILLER_89_719
*14160 FILLER_89_726
*14161 FILLER_89_733
*14162 FILLER_89_740
*14163 FILLER_89_747
*14164 FILLER_89_75
*14165 FILLER_89_754
*14166 FILLER_89_761
*14167 FILLER_89_768
*14168 FILLER_89_775
*14169 FILLER_89_782
*14170 FILLER_89_789
*14171 FILLER_89_796
*14172 FILLER_89_803
*14173 FILLER_89_810
*14174 FILLER_89_817
*14175 FILLER_89_82
*14176 FILLER_89_824
*14177 FILLER_89_831
*14178 FILLER_89_838
*14179 FILLER_89_845
*14180 FILLER_89_852
*14181 FILLER_89_859
*14182 FILLER_89_866
*14183 FILLER_89_873
*14184 FILLER_89_880
*14185 FILLER_89_887
*14186 FILLER_89_89
*14187 FILLER_89_894
*14188 FILLER_89_901
*14189 FILLER_89_908
*14190 FILLER_89_915
*14191 FILLER_89_922
*14192 FILLER_89_929
*14193 FILLER_89_936
*14194 FILLER_89_943
*14195 FILLER_89_950
*14196 FILLER_89_957
*14197 FILLER_89_96
*14198 FILLER_89_964
*14199 FILLER_89_971
*14200 FILLER_89_978
*14201 FILLER_89_985
*14202 FILLER_89_992
*14203 FILLER_89_999
*14204 FILLER_8_1005
*14205 FILLER_8_1012
*14206 FILLER_8_1019
*14207 FILLER_8_102
*14208 FILLER_8_1026
*14209 FILLER_8_1028
*14210 FILLER_8_109
*14211 FILLER_8_11
*14212 FILLER_8_116
*14213 FILLER_8_123
*14214 FILLER_8_130
*14215 FILLER_8_137
*14216 FILLER_8_144
*14217 FILLER_8_151
*14218 FILLER_8_158
*14219 FILLER_8_165
*14220 FILLER_8_172
*14221 FILLER_8_179
*14222 FILLER_8_18
*14223 FILLER_8_186
*14224 FILLER_8_193
*14225 FILLER_8_200
*14226 FILLER_8_207
*14227 FILLER_8_214
*14228 FILLER_8_221
*14229 FILLER_8_228
*14230 FILLER_8_235
*14231 FILLER_8_242
*14232 FILLER_8_249
*14233 FILLER_8_25
*14234 FILLER_8_256
*14235 FILLER_8_263
*14236 FILLER_8_270
*14237 FILLER_8_277
*14238 FILLER_8_284
*14239 FILLER_8_291
*14240 FILLER_8_298
*14241 FILLER_8_305
*14242 FILLER_8_312
*14243 FILLER_8_319
*14244 FILLER_8_32
*14245 FILLER_8_326
*14246 FILLER_8_333
*14247 FILLER_8_340
*14248 FILLER_8_347
*14249 FILLER_8_354
*14250 FILLER_8_361
*14251 FILLER_8_368
*14252 FILLER_8_375
*14253 FILLER_8_382
*14254 FILLER_8_389
*14255 FILLER_8_39
*14256 FILLER_8_396
*14257 FILLER_8_4
*14258 FILLER_8_403
*14259 FILLER_8_410
*14260 FILLER_8_417
*14261 FILLER_8_424
*14262 FILLER_8_431
*14263 FILLER_8_438
*14264 FILLER_8_445
*14265 FILLER_8_452
*14266 FILLER_8_459
*14267 FILLER_8_46
*14268 FILLER_8_466
*14269 FILLER_8_473
*14270 FILLER_8_480
*14271 FILLER_8_487
*14272 FILLER_8_494
*14273 FILLER_8_501
*14274 FILLER_8_508
*14275 FILLER_8_515
*14276 FILLER_8_522
*14277 FILLER_8_529
*14278 FILLER_8_53
*14279 FILLER_8_536
*14280 FILLER_8_543
*14281 FILLER_8_550
*14282 FILLER_8_557
*14283 FILLER_8_564
*14284 FILLER_8_571
*14285 FILLER_8_578
*14286 FILLER_8_585
*14287 FILLER_8_592
*14288 FILLER_8_599
*14289 FILLER_8_60
*14290 FILLER_8_606
*14291 FILLER_8_613
*14292 FILLER_8_620
*14293 FILLER_8_627
*14294 FILLER_8_634
*14295 FILLER_8_641
*14296 FILLER_8_648
*14297 FILLER_8_655
*14298 FILLER_8_662
*14299 FILLER_8_669
*14300 FILLER_8_67
*14301 FILLER_8_676
*14302 FILLER_8_683
*14303 FILLER_8_690
*14304 FILLER_8_697
*14305 FILLER_8_704
*14306 FILLER_8_711
*14307 FILLER_8_718
*14308 FILLER_8_725
*14309 FILLER_8_732
*14310 FILLER_8_739
*14311 FILLER_8_74
*14312 FILLER_8_746
*14313 FILLER_8_753
*14314 FILLER_8_760
*14315 FILLER_8_767
*14316 FILLER_8_774
*14317 FILLER_8_781
*14318 FILLER_8_788
*14319 FILLER_8_795
*14320 FILLER_8_802
*14321 FILLER_8_809
*14322 FILLER_8_81
*14323 FILLER_8_816
*14324 FILLER_8_823
*14325 FILLER_8_830
*14326 FILLER_8_837
*14327 FILLER_8_844
*14328 FILLER_8_851
*14329 FILLER_8_858
*14330 FILLER_8_865
*14331 FILLER_8_872
*14332 FILLER_8_879
*14333 FILLER_8_88
*14334 FILLER_8_886
*14335 FILLER_8_893
*14336 FILLER_8_900
*14337 FILLER_8_907
*14338 FILLER_8_914
*14339 FILLER_8_921
*14340 FILLER_8_928
*14341 FILLER_8_935
*14342 FILLER_8_942
*14343 FILLER_8_949
*14344 FILLER_8_95
*14345 FILLER_8_956
*14346 FILLER_8_963
*14347 FILLER_8_970
*14348 FILLER_8_977
*14349 FILLER_8_984
*14350 FILLER_8_991
*14351 FILLER_8_998
*14352 FILLER_90_1000
*14353 FILLER_90_1007
*14354 FILLER_90_1014
*14355 FILLER_90_1021
*14356 FILLER_90_1028
*14357 FILLER_90_104
*14358 FILLER_90_11
*14359 FILLER_90_111
*14360 FILLER_90_118
*14361 FILLER_90_125
*14362 FILLER_90_132
*14363 FILLER_90_139
*14364 FILLER_90_146
*14365 FILLER_90_153
*14366 FILLER_90_160
*14367 FILLER_90_167
*14368 FILLER_90_174
*14369 FILLER_90_18
*14370 FILLER_90_181
*14371 FILLER_90_188
*14372 FILLER_90_195
*14373 FILLER_90_202
*14374 FILLER_90_209
*14375 FILLER_90_216
*14376 FILLER_90_223
*14377 FILLER_90_230
*14378 FILLER_90_237
*14379 FILLER_90_244
*14380 FILLER_90_251
*14381 FILLER_90_258
*14382 FILLER_90_265
*14383 FILLER_90_272
*14384 FILLER_90_279
*14385 FILLER_90_286
*14386 FILLER_90_293
*14387 FILLER_90_30
*14388 FILLER_90_300
*14389 FILLER_90_307
*14390 FILLER_90_314
*14391 FILLER_90_321
*14392 FILLER_90_328
*14393 FILLER_90_335
*14394 FILLER_90_342
*14395 FILLER_90_349
*14396 FILLER_90_356
*14397 FILLER_90_363
*14398 FILLER_90_370
*14399 FILLER_90_377
*14400 FILLER_90_384
*14401 FILLER_90_391
*14402 FILLER_90_398
*14403 FILLER_90_4
*14404 FILLER_90_405
*14405 FILLER_90_41
*14406 FILLER_90_412
*14407 FILLER_90_419
*14408 FILLER_90_426
*14409 FILLER_90_433
*14410 FILLER_90_440
*14411 FILLER_90_447
*14412 FILLER_90_454
*14413 FILLER_90_461
*14414 FILLER_90_468
*14415 FILLER_90_475
*14416 FILLER_90_48
*14417 FILLER_90_482
*14418 FILLER_90_489
*14419 FILLER_90_496
*14420 FILLER_90_503
*14421 FILLER_90_510
*14422 FILLER_90_517
*14423 FILLER_90_524
*14424 FILLER_90_531
*14425 FILLER_90_538
*14426 FILLER_90_545
*14427 FILLER_90_55
*14428 FILLER_90_552
*14429 FILLER_90_559
*14430 FILLER_90_566
*14431 FILLER_90_573
*14432 FILLER_90_580
*14433 FILLER_90_587
*14434 FILLER_90_594
*14435 FILLER_90_601
*14436 FILLER_90_608
*14437 FILLER_90_615
*14438 FILLER_90_62
*14439 FILLER_90_622
*14440 FILLER_90_629
*14441 FILLER_90_636
*14442 FILLER_90_643
*14443 FILLER_90_650
*14444 FILLER_90_657
*14445 FILLER_90_664
*14446 FILLER_90_671
*14447 FILLER_90_678
*14448 FILLER_90_685
*14449 FILLER_90_69
*14450 FILLER_90_692
*14451 FILLER_90_699
*14452 FILLER_90_706
*14453 FILLER_90_713
*14454 FILLER_90_720
*14455 FILLER_90_727
*14456 FILLER_90_734
*14457 FILLER_90_741
*14458 FILLER_90_748
*14459 FILLER_90_755
*14460 FILLER_90_76
*14461 FILLER_90_762
*14462 FILLER_90_769
*14463 FILLER_90_776
*14464 FILLER_90_783
*14465 FILLER_90_790
*14466 FILLER_90_797
*14467 FILLER_90_804
*14468 FILLER_90_811
*14469 FILLER_90_818
*14470 FILLER_90_825
*14471 FILLER_90_83
*14472 FILLER_90_832
*14473 FILLER_90_839
*14474 FILLER_90_846
*14475 FILLER_90_853
*14476 FILLER_90_860
*14477 FILLER_90_867
*14478 FILLER_90_874
*14479 FILLER_90_881
*14480 FILLER_90_888
*14481 FILLER_90_895
*14482 FILLER_90_90
*14483 FILLER_90_902
*14484 FILLER_90_909
*14485 FILLER_90_916
*14486 FILLER_90_923
*14487 FILLER_90_930
*14488 FILLER_90_937
*14489 FILLER_90_944
*14490 FILLER_90_951
*14491 FILLER_90_958
*14492 FILLER_90_965
*14493 FILLER_90_97
*14494 FILLER_90_972
*14495 FILLER_90_979
*14496 FILLER_90_986
*14497 FILLER_90_993
*14498 FILLER_91_0
*14499 FILLER_91_1005
*14500 FILLER_91_1012
*14501 FILLER_91_1019
*14502 FILLER_91_102
*14503 FILLER_91_1026
*14504 FILLER_91_1028
*14505 FILLER_91_109
*14506 FILLER_91_116
*14507 FILLER_91_123
*14508 FILLER_91_130
*14509 FILLER_91_137
*14510 FILLER_91_14
*14511 FILLER_91_144
*14512 FILLER_91_151
*14513 FILLER_91_158
*14514 FILLER_91_165
*14515 FILLER_91_172
*14516 FILLER_91_179
*14517 FILLER_91_186
*14518 FILLER_91_193
*14519 FILLER_91_200
*14520 FILLER_91_207
*14521 FILLER_91_21
*14522 FILLER_91_214
*14523 FILLER_91_221
*14524 FILLER_91_228
*14525 FILLER_91_23
*14526 FILLER_91_235
*14527 FILLER_91_242
*14528 FILLER_91_249
*14529 FILLER_91_256
*14530 FILLER_91_263
*14531 FILLER_91_270
*14532 FILLER_91_277
*14533 FILLER_91_284
*14534 FILLER_91_291
*14535 FILLER_91_298
*14536 FILLER_91_305
*14537 FILLER_91_312
*14538 FILLER_91_319
*14539 FILLER_91_32
*14540 FILLER_91_326
*14541 FILLER_91_333
*14542 FILLER_91_340
*14543 FILLER_91_347
*14544 FILLER_91_354
*14545 FILLER_91_361
*14546 FILLER_91_368
*14547 FILLER_91_375
*14548 FILLER_91_382
*14549 FILLER_91_389
*14550 FILLER_91_39
*14551 FILLER_91_396
*14552 FILLER_91_403
*14553 FILLER_91_410
*14554 FILLER_91_417
*14555 FILLER_91_424
*14556 FILLER_91_431
*14557 FILLER_91_438
*14558 FILLER_91_445
*14559 FILLER_91_452
*14560 FILLER_91_459
*14561 FILLER_91_46
*14562 FILLER_91_466
*14563 FILLER_91_473
*14564 FILLER_91_480
*14565 FILLER_91_487
*14566 FILLER_91_494
*14567 FILLER_91_501
*14568 FILLER_91_508
*14569 FILLER_91_515
*14570 FILLER_91_522
*14571 FILLER_91_529
*14572 FILLER_91_53
*14573 FILLER_91_536
*14574 FILLER_91_543
*14575 FILLER_91_550
*14576 FILLER_91_557
*14577 FILLER_91_564
*14578 FILLER_91_571
*14579 FILLER_91_578
*14580 FILLER_91_585
*14581 FILLER_91_592
*14582 FILLER_91_599
*14583 FILLER_91_60
*14584 FILLER_91_606
*14585 FILLER_91_613
*14586 FILLER_91_620
*14587 FILLER_91_627
*14588 FILLER_91_634
*14589 FILLER_91_641
*14590 FILLER_91_648
*14591 FILLER_91_655
*14592 FILLER_91_662
*14593 FILLER_91_669
*14594 FILLER_91_67
*14595 FILLER_91_676
*14596 FILLER_91_683
*14597 FILLER_91_690
*14598 FILLER_91_697
*14599 FILLER_91_7
*14600 FILLER_91_704
*14601 FILLER_91_711
*14602 FILLER_91_718
*14603 FILLER_91_725
*14604 FILLER_91_732
*14605 FILLER_91_739
*14606 FILLER_91_74
*14607 FILLER_91_746
*14608 FILLER_91_753
*14609 FILLER_91_760
*14610 FILLER_91_767
*14611 FILLER_91_774
*14612 FILLER_91_781
*14613 FILLER_91_788
*14614 FILLER_91_795
*14615 FILLER_91_802
*14616 FILLER_91_809
*14617 FILLER_91_81
*14618 FILLER_91_816
*14619 FILLER_91_823
*14620 FILLER_91_830
*14621 FILLER_91_837
*14622 FILLER_91_844
*14623 FILLER_91_851
*14624 FILLER_91_858
*14625 FILLER_91_865
*14626 FILLER_91_872
*14627 FILLER_91_879
*14628 FILLER_91_88
*14629 FILLER_91_886
*14630 FILLER_91_893
*14631 FILLER_91_900
*14632 FILLER_91_907
*14633 FILLER_91_914
*14634 FILLER_91_921
*14635 FILLER_91_928
*14636 FILLER_91_935
*14637 FILLER_91_942
*14638 FILLER_91_949
*14639 FILLER_91_95
*14640 FILLER_91_956
*14641 FILLER_91_963
*14642 FILLER_91_970
*14643 FILLER_91_977
*14644 FILLER_91_984
*14645 FILLER_91_991
*14646 FILLER_91_998
*14647 FILLER_92_1000
*14648 FILLER_92_1007
*14649 FILLER_92_1014
*14650 FILLER_92_1021
*14651 FILLER_92_1028
*14652 FILLER_92_104
*14653 FILLER_92_11
*14654 FILLER_92_111
*14655 FILLER_92_118
*14656 FILLER_92_125
*14657 FILLER_92_132
*14658 FILLER_92_139
*14659 FILLER_92_146
*14660 FILLER_92_153
*14661 FILLER_92_160
*14662 FILLER_92_167
*14663 FILLER_92_174
*14664 FILLER_92_18
*14665 FILLER_92_181
*14666 FILLER_92_188
*14667 FILLER_92_195
*14668 FILLER_92_202
*14669 FILLER_92_209
*14670 FILLER_92_216
*14671 FILLER_92_223
*14672 FILLER_92_230
*14673 FILLER_92_237
*14674 FILLER_92_244
*14675 FILLER_92_251
*14676 FILLER_92_258
*14677 FILLER_92_265
*14678 FILLER_92_27
*14679 FILLER_92_272
*14680 FILLER_92_279
*14681 FILLER_92_286
*14682 FILLER_92_293
*14683 FILLER_92_300
*14684 FILLER_92_307
*14685 FILLER_92_314
*14686 FILLER_92_321
*14687 FILLER_92_328
*14688 FILLER_92_335
*14689 FILLER_92_34
*14690 FILLER_92_342
*14691 FILLER_92_349
*14692 FILLER_92_356
*14693 FILLER_92_363
*14694 FILLER_92_370
*14695 FILLER_92_377
*14696 FILLER_92_384
*14697 FILLER_92_391
*14698 FILLER_92_398
*14699 FILLER_92_4
*14700 FILLER_92_405
*14701 FILLER_92_41
*14702 FILLER_92_412
*14703 FILLER_92_419
*14704 FILLER_92_426
*14705 FILLER_92_433
*14706 FILLER_92_440
*14707 FILLER_92_447
*14708 FILLER_92_454
*14709 FILLER_92_461
*14710 FILLER_92_468
*14711 FILLER_92_475
*14712 FILLER_92_48
*14713 FILLER_92_482
*14714 FILLER_92_489
*14715 FILLER_92_496
*14716 FILLER_92_503
*14717 FILLER_92_510
*14718 FILLER_92_517
*14719 FILLER_92_524
*14720 FILLER_92_531
*14721 FILLER_92_538
*14722 FILLER_92_545
*14723 FILLER_92_55
*14724 FILLER_92_552
*14725 FILLER_92_559
*14726 FILLER_92_566
*14727 FILLER_92_573
*14728 FILLER_92_580
*14729 FILLER_92_587
*14730 FILLER_92_594
*14731 FILLER_92_601
*14732 FILLER_92_608
*14733 FILLER_92_615
*14734 FILLER_92_62
*14735 FILLER_92_622
*14736 FILLER_92_629
*14737 FILLER_92_636
*14738 FILLER_92_643
*14739 FILLER_92_650
*14740 FILLER_92_657
*14741 FILLER_92_664
*14742 FILLER_92_671
*14743 FILLER_92_678
*14744 FILLER_92_685
*14745 FILLER_92_69
*14746 FILLER_92_692
*14747 FILLER_92_699
*14748 FILLER_92_706
*14749 FILLER_92_713
*14750 FILLER_92_720
*14751 FILLER_92_727
*14752 FILLER_92_734
*14753 FILLER_92_741
*14754 FILLER_92_748
*14755 FILLER_92_755
*14756 FILLER_92_76
*14757 FILLER_92_762
*14758 FILLER_92_769
*14759 FILLER_92_776
*14760 FILLER_92_783
*14761 FILLER_92_790
*14762 FILLER_92_797
*14763 FILLER_92_804
*14764 FILLER_92_811
*14765 FILLER_92_818
*14766 FILLER_92_825
*14767 FILLER_92_83
*14768 FILLER_92_832
*14769 FILLER_92_839
*14770 FILLER_92_846
*14771 FILLER_92_853
*14772 FILLER_92_860
*14773 FILLER_92_867
*14774 FILLER_92_874
*14775 FILLER_92_881
*14776 FILLER_92_888
*14777 FILLER_92_895
*14778 FILLER_92_90
*14779 FILLER_92_902
*14780 FILLER_92_909
*14781 FILLER_92_916
*14782 FILLER_92_923
*14783 FILLER_92_930
*14784 FILLER_92_937
*14785 FILLER_92_944
*14786 FILLER_92_951
*14787 FILLER_92_958
*14788 FILLER_92_965
*14789 FILLER_92_97
*14790 FILLER_92_972
*14791 FILLER_92_979
*14792 FILLER_92_986
*14793 FILLER_92_993
*14794 FILLER_93_1005
*14795 FILLER_93_1012
*14796 FILLER_93_1019
*14797 FILLER_93_102
*14798 FILLER_93_1026
*14799 FILLER_93_1028
*14800 FILLER_93_109
*14801 FILLER_93_11
*14802 FILLER_93_116
*14803 FILLER_93_123
*14804 FILLER_93_130
*14805 FILLER_93_137
*14806 FILLER_93_144
*14807 FILLER_93_151
*14808 FILLER_93_158
*14809 FILLER_93_165
*14810 FILLER_93_172
*14811 FILLER_93_179
*14812 FILLER_93_18
*14813 FILLER_93_186
*14814 FILLER_93_193
*14815 FILLER_93_200
*14816 FILLER_93_207
*14817 FILLER_93_214
*14818 FILLER_93_221
*14819 FILLER_93_228
*14820 FILLER_93_235
*14821 FILLER_93_242
*14822 FILLER_93_249
*14823 FILLER_93_25
*14824 FILLER_93_256
*14825 FILLER_93_263
*14826 FILLER_93_270
*14827 FILLER_93_277
*14828 FILLER_93_284
*14829 FILLER_93_291
*14830 FILLER_93_298
*14831 FILLER_93_305
*14832 FILLER_93_312
*14833 FILLER_93_319
*14834 FILLER_93_32
*14835 FILLER_93_326
*14836 FILLER_93_333
*14837 FILLER_93_340
*14838 FILLER_93_347
*14839 FILLER_93_354
*14840 FILLER_93_361
*14841 FILLER_93_368
*14842 FILLER_93_375
*14843 FILLER_93_382
*14844 FILLER_93_389
*14845 FILLER_93_39
*14846 FILLER_93_396
*14847 FILLER_93_4
*14848 FILLER_93_403
*14849 FILLER_93_410
*14850 FILLER_93_417
*14851 FILLER_93_424
*14852 FILLER_93_431
*14853 FILLER_93_438
*14854 FILLER_93_445
*14855 FILLER_93_452
*14856 FILLER_93_459
*14857 FILLER_93_46
*14858 FILLER_93_466
*14859 FILLER_93_473
*14860 FILLER_93_480
*14861 FILLER_93_487
*14862 FILLER_93_494
*14863 FILLER_93_501
*14864 FILLER_93_508
*14865 FILLER_93_515
*14866 FILLER_93_522
*14867 FILLER_93_529
*14868 FILLER_93_53
*14869 FILLER_93_536
*14870 FILLER_93_543
*14871 FILLER_93_550
*14872 FILLER_93_557
*14873 FILLER_93_564
*14874 FILLER_93_571
*14875 FILLER_93_578
*14876 FILLER_93_585
*14877 FILLER_93_592
*14878 FILLER_93_599
*14879 FILLER_93_60
*14880 FILLER_93_606
*14881 FILLER_93_613
*14882 FILLER_93_620
*14883 FILLER_93_627
*14884 FILLER_93_634
*14885 FILLER_93_641
*14886 FILLER_93_648
*14887 FILLER_93_655
*14888 FILLER_93_662
*14889 FILLER_93_669
*14890 FILLER_93_67
*14891 FILLER_93_676
*14892 FILLER_93_683
*14893 FILLER_93_690
*14894 FILLER_93_697
*14895 FILLER_93_704
*14896 FILLER_93_711
*14897 FILLER_93_718
*14898 FILLER_93_725
*14899 FILLER_93_732
*14900 FILLER_93_739
*14901 FILLER_93_74
*14902 FILLER_93_746
*14903 FILLER_93_753
*14904 FILLER_93_760
*14905 FILLER_93_767
*14906 FILLER_93_774
*14907 FILLER_93_781
*14908 FILLER_93_788
*14909 FILLER_93_795
*14910 FILLER_93_802
*14911 FILLER_93_809
*14912 FILLER_93_81
*14913 FILLER_93_816
*14914 FILLER_93_823
*14915 FILLER_93_830
*14916 FILLER_93_837
*14917 FILLER_93_844
*14918 FILLER_93_851
*14919 FILLER_93_858
*14920 FILLER_93_865
*14921 FILLER_93_872
*14922 FILLER_93_879
*14923 FILLER_93_88
*14924 FILLER_93_886
*14925 FILLER_93_893
*14926 FILLER_93_900
*14927 FILLER_93_907
*14928 FILLER_93_914
*14929 FILLER_93_921
*14930 FILLER_93_928
*14931 FILLER_93_935
*14932 FILLER_93_942
*14933 FILLER_93_949
*14934 FILLER_93_95
*14935 FILLER_93_956
*14936 FILLER_93_963
*14937 FILLER_93_970
*14938 FILLER_93_977
*14939 FILLER_93_984
*14940 FILLER_93_991
*14941 FILLER_93_998
*14942 FILLER_94_1005
*14943 FILLER_94_1012
*14944 FILLER_94_1019
*14945 FILLER_94_102
*14946 FILLER_94_1026
*14947 FILLER_94_1028
*14948 FILLER_94_109
*14949 FILLER_94_11
*14950 FILLER_94_116
*14951 FILLER_94_123
*14952 FILLER_94_130
*14953 FILLER_94_137
*14954 FILLER_94_144
*14955 FILLER_94_151
*14956 FILLER_94_158
*14957 FILLER_94_165
*14958 FILLER_94_172
*14959 FILLER_94_179
*14960 FILLER_94_18
*14961 FILLER_94_186
*14962 FILLER_94_193
*14963 FILLER_94_200
*14964 FILLER_94_207
*14965 FILLER_94_214
*14966 FILLER_94_221
*14967 FILLER_94_228
*14968 FILLER_94_235
*14969 FILLER_94_242
*14970 FILLER_94_249
*14971 FILLER_94_25
*14972 FILLER_94_256
*14973 FILLER_94_263
*14974 FILLER_94_270
*14975 FILLER_94_277
*14976 FILLER_94_284
*14977 FILLER_94_291
*14978 FILLER_94_298
*14979 FILLER_94_305
*14980 FILLER_94_312
*14981 FILLER_94_319
*14982 FILLER_94_32
*14983 FILLER_94_326
*14984 FILLER_94_333
*14985 FILLER_94_340
*14986 FILLER_94_347
*14987 FILLER_94_354
*14988 FILLER_94_361
*14989 FILLER_94_368
*14990 FILLER_94_375
*14991 FILLER_94_382
*14992 FILLER_94_389
*14993 FILLER_94_39
*14994 FILLER_94_396
*14995 FILLER_94_4
*14996 FILLER_94_403
*14997 FILLER_94_410
*14998 FILLER_94_417
*14999 FILLER_94_424
*15000 FILLER_94_431
*15001 FILLER_94_438
*15002 FILLER_94_445
*15003 FILLER_94_452
*15004 FILLER_94_459
*15005 FILLER_94_46
*15006 FILLER_94_466
*15007 FILLER_94_473
*15008 FILLER_94_480
*15009 FILLER_94_487
*15010 FILLER_94_494
*15011 FILLER_94_501
*15012 FILLER_94_508
*15013 FILLER_94_515
*15014 FILLER_94_522
*15015 FILLER_94_529
*15016 FILLER_94_53
*15017 FILLER_94_536
*15018 FILLER_94_543
*15019 FILLER_94_550
*15020 FILLER_94_557
*15021 FILLER_94_564
*15022 FILLER_94_571
*15023 FILLER_94_578
*15024 FILLER_94_585
*15025 FILLER_94_592
*15026 FILLER_94_599
*15027 FILLER_94_60
*15028 FILLER_94_606
*15029 FILLER_94_613
*15030 FILLER_94_620
*15031 FILLER_94_627
*15032 FILLER_94_634
*15033 FILLER_94_641
*15034 FILLER_94_648
*15035 FILLER_94_655
*15036 FILLER_94_662
*15037 FILLER_94_669
*15038 FILLER_94_67
*15039 FILLER_94_676
*15040 FILLER_94_683
*15041 FILLER_94_690
*15042 FILLER_94_697
*15043 FILLER_94_704
*15044 FILLER_94_711
*15045 FILLER_94_718
*15046 FILLER_94_725
*15047 FILLER_94_732
*15048 FILLER_94_739
*15049 FILLER_94_74
*15050 FILLER_94_746
*15051 FILLER_94_753
*15052 FILLER_94_760
*15053 FILLER_94_767
*15054 FILLER_94_774
*15055 FILLER_94_781
*15056 FILLER_94_788
*15057 FILLER_94_795
*15058 FILLER_94_802
*15059 FILLER_94_809
*15060 FILLER_94_81
*15061 FILLER_94_816
*15062 FILLER_94_823
*15063 FILLER_94_830
*15064 FILLER_94_837
*15065 FILLER_94_844
*15066 FILLER_94_851
*15067 FILLER_94_858
*15068 FILLER_94_865
*15069 FILLER_94_872
*15070 FILLER_94_879
*15071 FILLER_94_88
*15072 FILLER_94_886
*15073 FILLER_94_893
*15074 FILLER_94_900
*15075 FILLER_94_907
*15076 FILLER_94_914
*15077 FILLER_94_921
*15078 FILLER_94_928
*15079 FILLER_94_935
*15080 FILLER_94_942
*15081 FILLER_94_949
*15082 FILLER_94_95
*15083 FILLER_94_956
*15084 FILLER_94_963
*15085 FILLER_94_970
*15086 FILLER_94_977
*15087 FILLER_94_984
*15088 FILLER_94_991
*15089 FILLER_94_998
*15090 FILLER_95_1005
*15091 FILLER_95_1012
*15092 FILLER_95_1019
*15093 FILLER_95_102
*15094 FILLER_95_1026
*15095 FILLER_95_1028
*15096 FILLER_95_109
*15097 FILLER_95_11
*15098 FILLER_95_116
*15099 FILLER_95_123
*15100 FILLER_95_130
*15101 FILLER_95_137
*15102 FILLER_95_144
*15103 FILLER_95_151
*15104 FILLER_95_158
*15105 FILLER_95_165
*15106 FILLER_95_172
*15107 FILLER_95_179
*15108 FILLER_95_18
*15109 FILLER_95_186
*15110 FILLER_95_193
*15111 FILLER_95_200
*15112 FILLER_95_207
*15113 FILLER_95_214
*15114 FILLER_95_221
*15115 FILLER_95_228
*15116 FILLER_95_235
*15117 FILLER_95_242
*15118 FILLER_95_249
*15119 FILLER_95_25
*15120 FILLER_95_256
*15121 FILLER_95_263
*15122 FILLER_95_270
*15123 FILLER_95_277
*15124 FILLER_95_284
*15125 FILLER_95_291
*15126 FILLER_95_298
*15127 FILLER_95_305
*15128 FILLER_95_312
*15129 FILLER_95_319
*15130 FILLER_95_32
*15131 FILLER_95_326
*15132 FILLER_95_333
*15133 FILLER_95_340
*15134 FILLER_95_347
*15135 FILLER_95_354
*15136 FILLER_95_361
*15137 FILLER_95_368
*15138 FILLER_95_375
*15139 FILLER_95_382
*15140 FILLER_95_389
*15141 FILLER_95_39
*15142 FILLER_95_396
*15143 FILLER_95_4
*15144 FILLER_95_403
*15145 FILLER_95_410
*15146 FILLER_95_417
*15147 FILLER_95_424
*15148 FILLER_95_431
*15149 FILLER_95_438
*15150 FILLER_95_445
*15151 FILLER_95_452
*15152 FILLER_95_459
*15153 FILLER_95_46
*15154 FILLER_95_466
*15155 FILLER_95_473
*15156 FILLER_95_480
*15157 FILLER_95_487
*15158 FILLER_95_494
*15159 FILLER_95_501
*15160 FILLER_95_508
*15161 FILLER_95_515
*15162 FILLER_95_522
*15163 FILLER_95_529
*15164 FILLER_95_53
*15165 FILLER_95_536
*15166 FILLER_95_543
*15167 FILLER_95_550
*15168 FILLER_95_557
*15169 FILLER_95_564
*15170 FILLER_95_571
*15171 FILLER_95_578
*15172 FILLER_95_585
*15173 FILLER_95_592
*15174 FILLER_95_599
*15175 FILLER_95_60
*15176 FILLER_95_606
*15177 FILLER_95_613
*15178 FILLER_95_620
*15179 FILLER_95_627
*15180 FILLER_95_634
*15181 FILLER_95_641
*15182 FILLER_95_648
*15183 FILLER_95_655
*15184 FILLER_95_662
*15185 FILLER_95_669
*15186 FILLER_95_67
*15187 FILLER_95_676
*15188 FILLER_95_683
*15189 FILLER_95_690
*15190 FILLER_95_697
*15191 FILLER_95_704
*15192 FILLER_95_711
*15193 FILLER_95_718
*15194 FILLER_95_725
*15195 FILLER_95_732
*15196 FILLER_95_739
*15197 FILLER_95_74
*15198 FILLER_95_746
*15199 FILLER_95_753
*15200 FILLER_95_760
*15201 FILLER_95_767
*15202 FILLER_95_774
*15203 FILLER_95_781
*15204 FILLER_95_788
*15205 FILLER_95_795
*15206 FILLER_95_802
*15207 FILLER_95_809
*15208 FILLER_95_81
*15209 FILLER_95_816
*15210 FILLER_95_823
*15211 FILLER_95_830
*15212 FILLER_95_837
*15213 FILLER_95_844
*15214 FILLER_95_851
*15215 FILLER_95_858
*15216 FILLER_95_865
*15217 FILLER_95_872
*15218 FILLER_95_879
*15219 FILLER_95_88
*15220 FILLER_95_886
*15221 FILLER_95_893
*15222 FILLER_95_900
*15223 FILLER_95_907
*15224 FILLER_95_914
*15225 FILLER_95_921
*15226 FILLER_95_928
*15227 FILLER_95_935
*15228 FILLER_95_942
*15229 FILLER_95_949
*15230 FILLER_95_95
*15231 FILLER_95_956
*15232 FILLER_95_963
*15233 FILLER_95_970
*15234 FILLER_95_977
*15235 FILLER_95_984
*15236 FILLER_95_991
*15237 FILLER_95_998
*15238 FILLER_96_1005
*15239 FILLER_96_1012
*15240 FILLER_96_1019
*15241 FILLER_96_102
*15242 FILLER_96_1026
*15243 FILLER_96_1028
*15244 FILLER_96_109
*15245 FILLER_96_11
*15246 FILLER_96_116
*15247 FILLER_96_123
*15248 FILLER_96_130
*15249 FILLER_96_137
*15250 FILLER_96_144
*15251 FILLER_96_151
*15252 FILLER_96_158
*15253 FILLER_96_165
*15254 FILLER_96_172
*15255 FILLER_96_179
*15256 FILLER_96_18
*15257 FILLER_96_186
*15258 FILLER_96_193
*15259 FILLER_96_200
*15260 FILLER_96_207
*15261 FILLER_96_214
*15262 FILLER_96_221
*15263 FILLER_96_228
*15264 FILLER_96_235
*15265 FILLER_96_242
*15266 FILLER_96_249
*15267 FILLER_96_25
*15268 FILLER_96_256
*15269 FILLER_96_263
*15270 FILLER_96_270
*15271 FILLER_96_277
*15272 FILLER_96_284
*15273 FILLER_96_291
*15274 FILLER_96_298
*15275 FILLER_96_305
*15276 FILLER_96_312
*15277 FILLER_96_319
*15278 FILLER_96_32
*15279 FILLER_96_326
*15280 FILLER_96_333
*15281 FILLER_96_340
*15282 FILLER_96_347
*15283 FILLER_96_354
*15284 FILLER_96_361
*15285 FILLER_96_368
*15286 FILLER_96_375
*15287 FILLER_96_382
*15288 FILLER_96_389
*15289 FILLER_96_39
*15290 FILLER_96_396
*15291 FILLER_96_4
*15292 FILLER_96_403
*15293 FILLER_96_410
*15294 FILLER_96_417
*15295 FILLER_96_424
*15296 FILLER_96_431
*15297 FILLER_96_438
*15298 FILLER_96_445
*15299 FILLER_96_452
*15300 FILLER_96_459
*15301 FILLER_96_46
*15302 FILLER_96_466
*15303 FILLER_96_473
*15304 FILLER_96_480
*15305 FILLER_96_487
*15306 FILLER_96_494
*15307 FILLER_96_501
*15308 FILLER_96_508
*15309 FILLER_96_515
*15310 FILLER_96_522
*15311 FILLER_96_529
*15312 FILLER_96_53
*15313 FILLER_96_536
*15314 FILLER_96_543
*15315 FILLER_96_550
*15316 FILLER_96_557
*15317 FILLER_96_564
*15318 FILLER_96_571
*15319 FILLER_96_578
*15320 FILLER_96_585
*15321 FILLER_96_592
*15322 FILLER_96_599
*15323 FILLER_96_60
*15324 FILLER_96_606
*15325 FILLER_96_613
*15326 FILLER_96_620
*15327 FILLER_96_627
*15328 FILLER_96_634
*15329 FILLER_96_641
*15330 FILLER_96_648
*15331 FILLER_96_655
*15332 FILLER_96_662
*15333 FILLER_96_669
*15334 FILLER_96_67
*15335 FILLER_96_676
*15336 FILLER_96_683
*15337 FILLER_96_690
*15338 FILLER_96_697
*15339 FILLER_96_704
*15340 FILLER_96_711
*15341 FILLER_96_718
*15342 FILLER_96_725
*15343 FILLER_96_732
*15344 FILLER_96_739
*15345 FILLER_96_74
*15346 FILLER_96_746
*15347 FILLER_96_753
*15348 FILLER_96_760
*15349 FILLER_96_767
*15350 FILLER_96_774
*15351 FILLER_96_781
*15352 FILLER_96_788
*15353 FILLER_96_795
*15354 FILLER_96_802
*15355 FILLER_96_809
*15356 FILLER_96_81
*15357 FILLER_96_816
*15358 FILLER_96_823
*15359 FILLER_96_830
*15360 FILLER_96_837
*15361 FILLER_96_844
*15362 FILLER_96_851
*15363 FILLER_96_858
*15364 FILLER_96_865
*15365 FILLER_96_872
*15366 FILLER_96_879
*15367 FILLER_96_88
*15368 FILLER_96_886
*15369 FILLER_96_893
*15370 FILLER_96_900
*15371 FILLER_96_907
*15372 FILLER_96_914
*15373 FILLER_96_921
*15374 FILLER_96_928
*15375 FILLER_96_935
*15376 FILLER_96_942
*15377 FILLER_96_949
*15378 FILLER_96_95
*15379 FILLER_96_956
*15380 FILLER_96_963
*15381 FILLER_96_970
*15382 FILLER_96_977
*15383 FILLER_96_984
*15384 FILLER_96_991
*15385 FILLER_96_998
*15386 FILLER_97_0
*15387 FILLER_97_1001
*15388 FILLER_97_1008
*15389 FILLER_97_1015
*15390 FILLER_97_1022
*15391 FILLER_97_105
*15392 FILLER_97_112
*15393 FILLER_97_119
*15394 FILLER_97_126
*15395 FILLER_97_133
*15396 FILLER_97_14
*15397 FILLER_97_140
*15398 FILLER_97_147
*15399 FILLER_97_154
*15400 FILLER_97_161
*15401 FILLER_97_168
*15402 FILLER_97_175
*15403 FILLER_97_182
*15404 FILLER_97_189
*15405 FILLER_97_196
*15406 FILLER_97_203
*15407 FILLER_97_21
*15408 FILLER_97_210
*15409 FILLER_97_217
*15410 FILLER_97_224
*15411 FILLER_97_231
*15412 FILLER_97_238
*15413 FILLER_97_245
*15414 FILLER_97_252
*15415 FILLER_97_259
*15416 FILLER_97_266
*15417 FILLER_97_273
*15418 FILLER_97_28
*15419 FILLER_97_280
*15420 FILLER_97_287
*15421 FILLER_97_294
*15422 FILLER_97_301
*15423 FILLER_97_308
*15424 FILLER_97_315
*15425 FILLER_97_322
*15426 FILLER_97_329
*15427 FILLER_97_336
*15428 FILLER_97_343
*15429 FILLER_97_35
*15430 FILLER_97_350
*15431 FILLER_97_357
*15432 FILLER_97_364
*15433 FILLER_97_371
*15434 FILLER_97_378
*15435 FILLER_97_385
*15436 FILLER_97_392
*15437 FILLER_97_399
*15438 FILLER_97_406
*15439 FILLER_97_413
*15440 FILLER_97_42
*15441 FILLER_97_420
*15442 FILLER_97_427
*15443 FILLER_97_434
*15444 FILLER_97_441
*15445 FILLER_97_448
*15446 FILLER_97_455
*15447 FILLER_97_462
*15448 FILLER_97_469
*15449 FILLER_97_476
*15450 FILLER_97_483
*15451 FILLER_97_49
*15452 FILLER_97_490
*15453 FILLER_97_497
*15454 FILLER_97_504
*15455 FILLER_97_511
*15456 FILLER_97_518
*15457 FILLER_97_525
*15458 FILLER_97_532
*15459 FILLER_97_539
*15460 FILLER_97_546
*15461 FILLER_97_553
*15462 FILLER_97_56
*15463 FILLER_97_560
*15464 FILLER_97_567
*15465 FILLER_97_574
*15466 FILLER_97_581
*15467 FILLER_97_588
*15468 FILLER_97_595
*15469 FILLER_97_602
*15470 FILLER_97_609
*15471 FILLER_97_616
*15472 FILLER_97_623
*15473 FILLER_97_63
*15474 FILLER_97_630
*15475 FILLER_97_637
*15476 FILLER_97_644
*15477 FILLER_97_651
*15478 FILLER_97_658
*15479 FILLER_97_665
*15480 FILLER_97_672
*15481 FILLER_97_679
*15482 FILLER_97_686
*15483 FILLER_97_693
*15484 FILLER_97_7
*15485 FILLER_97_70
*15486 FILLER_97_700
*15487 FILLER_97_707
*15488 FILLER_97_714
*15489 FILLER_97_721
*15490 FILLER_97_728
*15491 FILLER_97_735
*15492 FILLER_97_742
*15493 FILLER_97_749
*15494 FILLER_97_756
*15495 FILLER_97_763
*15496 FILLER_97_77
*15497 FILLER_97_770
*15498 FILLER_97_777
*15499 FILLER_97_784
*15500 FILLER_97_791
*15501 FILLER_97_798
*15502 FILLER_97_805
*15503 FILLER_97_812
*15504 FILLER_97_819
*15505 FILLER_97_826
*15506 FILLER_97_833
*15507 FILLER_97_84
*15508 FILLER_97_840
*15509 FILLER_97_847
*15510 FILLER_97_854
*15511 FILLER_97_861
*15512 FILLER_97_868
*15513 FILLER_97_875
*15514 FILLER_97_882
*15515 FILLER_97_889
*15516 FILLER_97_896
*15517 FILLER_97_903
*15518 FILLER_97_91
*15519 FILLER_97_910
*15520 FILLER_97_917
*15521 FILLER_97_924
*15522 FILLER_97_931
*15523 FILLER_97_938
*15524 FILLER_97_945
*15525 FILLER_97_952
*15526 FILLER_97_959
*15527 FILLER_97_966
*15528 FILLER_97_973
*15529 FILLER_97_98
*15530 FILLER_97_980
*15531 FILLER_97_987
*15532 FILLER_97_994
*15533 FILLER_98_0
*15534 FILLER_98_1001
*15535 FILLER_98_1008
*15536 FILLER_98_1015
*15537 FILLER_98_1022
*15538 FILLER_98_105
*15539 FILLER_98_112
*15540 FILLER_98_119
*15541 FILLER_98_126
*15542 FILLER_98_133
*15543 FILLER_98_14
*15544 FILLER_98_140
*15545 FILLER_98_147
*15546 FILLER_98_154
*15547 FILLER_98_161
*15548 FILLER_98_168
*15549 FILLER_98_175
*15550 FILLER_98_182
*15551 FILLER_98_189
*15552 FILLER_98_196
*15553 FILLER_98_203
*15554 FILLER_98_21
*15555 FILLER_98_210
*15556 FILLER_98_217
*15557 FILLER_98_224
*15558 FILLER_98_231
*15559 FILLER_98_238
*15560 FILLER_98_245
*15561 FILLER_98_252
*15562 FILLER_98_259
*15563 FILLER_98_266
*15564 FILLER_98_273
*15565 FILLER_98_28
*15566 FILLER_98_280
*15567 FILLER_98_287
*15568 FILLER_98_294
*15569 FILLER_98_301
*15570 FILLER_98_308
*15571 FILLER_98_315
*15572 FILLER_98_322
*15573 FILLER_98_329
*15574 FILLER_98_336
*15575 FILLER_98_343
*15576 FILLER_98_35
*15577 FILLER_98_350
*15578 FILLER_98_357
*15579 FILLER_98_364
*15580 FILLER_98_371
*15581 FILLER_98_378
*15582 FILLER_98_385
*15583 FILLER_98_392
*15584 FILLER_98_399
*15585 FILLER_98_406
*15586 FILLER_98_413
*15587 FILLER_98_42
*15588 FILLER_98_420
*15589 FILLER_98_427
*15590 FILLER_98_434
*15591 FILLER_98_441
*15592 FILLER_98_448
*15593 FILLER_98_455
*15594 FILLER_98_462
*15595 FILLER_98_469
*15596 FILLER_98_476
*15597 FILLER_98_483
*15598 FILLER_98_49
*15599 FILLER_98_490
*15600 FILLER_98_497
*15601 FILLER_98_504
*15602 FILLER_98_511
*15603 FILLER_98_518
*15604 FILLER_98_525
*15605 FILLER_98_532
*15606 FILLER_98_539
*15607 FILLER_98_546
*15608 FILLER_98_553
*15609 FILLER_98_56
*15610 FILLER_98_560
*15611 FILLER_98_567
*15612 FILLER_98_574
*15613 FILLER_98_581
*15614 FILLER_98_588
*15615 FILLER_98_595
*15616 FILLER_98_602
*15617 FILLER_98_609
*15618 FILLER_98_616
*15619 FILLER_98_623
*15620 FILLER_98_63
*15621 FILLER_98_630
*15622 FILLER_98_637
*15623 FILLER_98_644
*15624 FILLER_98_651
*15625 FILLER_98_658
*15626 FILLER_98_665
*15627 FILLER_98_672
*15628 FILLER_98_679
*15629 FILLER_98_686
*15630 FILLER_98_693
*15631 FILLER_98_7
*15632 FILLER_98_70
*15633 FILLER_98_700
*15634 FILLER_98_707
*15635 FILLER_98_714
*15636 FILLER_98_721
*15637 FILLER_98_728
*15638 FILLER_98_735
*15639 FILLER_98_742
*15640 FILLER_98_749
*15641 FILLER_98_756
*15642 FILLER_98_763
*15643 FILLER_98_77
*15644 FILLER_98_770
*15645 FILLER_98_777
*15646 FILLER_98_784
*15647 FILLER_98_791
*15648 FILLER_98_798
*15649 FILLER_98_805
*15650 FILLER_98_812
*15651 FILLER_98_819
*15652 FILLER_98_826
*15653 FILLER_98_833
*15654 FILLER_98_84
*15655 FILLER_98_840
*15656 FILLER_98_847
*15657 FILLER_98_854
*15658 FILLER_98_861
*15659 FILLER_98_868
*15660 FILLER_98_875
*15661 FILLER_98_882
*15662 FILLER_98_889
*15663 FILLER_98_896
*15664 FILLER_98_903
*15665 FILLER_98_91
*15666 FILLER_98_910
*15667 FILLER_98_917
*15668 FILLER_98_924
*15669 FILLER_98_931
*15670 FILLER_98_938
*15671 FILLER_98_945
*15672 FILLER_98_952
*15673 FILLER_98_959
*15674 FILLER_98_966
*15675 FILLER_98_973
*15676 FILLER_98_98
*15677 FILLER_98_980
*15678 FILLER_98_987
*15679 FILLER_98_994
*15680 FILLER_99_0
*15681 FILLER_99_1001
*15682 FILLER_99_1008
*15683 FILLER_99_1015
*15684 FILLER_99_1022
*15685 FILLER_99_105
*15686 FILLER_99_112
*15687 FILLER_99_119
*15688 FILLER_99_126
*15689 FILLER_99_133
*15690 FILLER_99_14
*15691 FILLER_99_140
*15692 FILLER_99_147
*15693 FILLER_99_154
*15694 FILLER_99_161
*15695 FILLER_99_168
*15696 FILLER_99_175
*15697 FILLER_99_182
*15698 FILLER_99_189
*15699 FILLER_99_196
*15700 FILLER_99_203
*15701 FILLER_99_21
*15702 FILLER_99_210
*15703 FILLER_99_217
*15704 FILLER_99_224
*15705 FILLER_99_231
*15706 FILLER_99_238
*15707 FILLER_99_245
*15708 FILLER_99_252
*15709 FILLER_99_259
*15710 FILLER_99_266
*15711 FILLER_99_273
*15712 FILLER_99_28
*15713 FILLER_99_280
*15714 FILLER_99_287
*15715 FILLER_99_294
*15716 FILLER_99_301
*15717 FILLER_99_308
*15718 FILLER_99_315
*15719 FILLER_99_322
*15720 FILLER_99_329
*15721 FILLER_99_336
*15722 FILLER_99_343
*15723 FILLER_99_35
*15724 FILLER_99_350
*15725 FILLER_99_357
*15726 FILLER_99_364
*15727 FILLER_99_371
*15728 FILLER_99_378
*15729 FILLER_99_385
*15730 FILLER_99_392
*15731 FILLER_99_399
*15732 FILLER_99_406
*15733 FILLER_99_413
*15734 FILLER_99_42
*15735 FILLER_99_420
*15736 FILLER_99_427
*15737 FILLER_99_434
*15738 FILLER_99_441
*15739 FILLER_99_448
*15740 FILLER_99_455
*15741 FILLER_99_462
*15742 FILLER_99_469
*15743 FILLER_99_476
*15744 FILLER_99_483
*15745 FILLER_99_49
*15746 FILLER_99_490
*15747 FILLER_99_497
*15748 FILLER_99_504
*15749 FILLER_99_511
*15750 FILLER_99_518
*15751 FILLER_99_525
*15752 FILLER_99_532
*15753 FILLER_99_539
*15754 FILLER_99_546
*15755 FILLER_99_553
*15756 FILLER_99_56
*15757 FILLER_99_560
*15758 FILLER_99_567
*15759 FILLER_99_574
*15760 FILLER_99_581
*15761 FILLER_99_588
*15762 FILLER_99_595
*15763 FILLER_99_602
*15764 FILLER_99_609
*15765 FILLER_99_616
*15766 FILLER_99_623
*15767 FILLER_99_63
*15768 FILLER_99_630
*15769 FILLER_99_637
*15770 FILLER_99_644
*15771 FILLER_99_651
*15772 FILLER_99_658
*15773 FILLER_99_665
*15774 FILLER_99_672
*15775 FILLER_99_679
*15776 FILLER_99_686
*15777 FILLER_99_693
*15778 FILLER_99_7
*15779 FILLER_99_70
*15780 FILLER_99_700
*15781 FILLER_99_707
*15782 FILLER_99_714
*15783 FILLER_99_721
*15784 FILLER_99_728
*15785 FILLER_99_735
*15786 FILLER_99_742
*15787 FILLER_99_749
*15788 FILLER_99_756
*15789 FILLER_99_763
*15790 FILLER_99_77
*15791 FILLER_99_770
*15792 FILLER_99_777
*15793 FILLER_99_784
*15794 FILLER_99_791
*15795 FILLER_99_798
*15796 FILLER_99_805
*15797 FILLER_99_812
*15798 FILLER_99_819
*15799 FILLER_99_826
*15800 FILLER_99_833
*15801 FILLER_99_84
*15802 FILLER_99_840
*15803 FILLER_99_847
*15804 FILLER_99_854
*15805 FILLER_99_861
*15806 FILLER_99_868
*15807 FILLER_99_875
*15808 FILLER_99_882
*15809 FILLER_99_889
*15810 FILLER_99_896
*15811 FILLER_99_903
*15812 FILLER_99_91
*15813 FILLER_99_910
*15814 FILLER_99_917
*15815 FILLER_99_924
*15816 FILLER_99_931
*15817 FILLER_99_938
*15818 FILLER_99_945
*15819 FILLER_99_952
*15820 FILLER_99_959
*15821 FILLER_99_966
*15822 FILLER_99_973
*15823 FILLER_99_98
*15824 FILLER_99_980
*15825 FILLER_99_987
*15826 FILLER_99_994
*15827 FILLER_9_1005
*15828 FILLER_9_1012
*15829 FILLER_9_1019
*15830 FILLER_9_102
*15831 FILLER_9_1026
*15832 FILLER_9_1028
*15833 FILLER_9_109
*15834 FILLER_9_11
*15835 FILLER_9_116
*15836 FILLER_9_123
*15837 FILLER_9_130
*15838 FILLER_9_137
*15839 FILLER_9_144
*15840 FILLER_9_151
*15841 FILLER_9_158
*15842 FILLER_9_165
*15843 FILLER_9_172
*15844 FILLER_9_179
*15845 FILLER_9_18
*15846 FILLER_9_186
*15847 FILLER_9_193
*15848 FILLER_9_200
*15849 FILLER_9_207
*15850 FILLER_9_214
*15851 FILLER_9_221
*15852 FILLER_9_228
*15853 FILLER_9_235
*15854 FILLER_9_242
*15855 FILLER_9_249
*15856 FILLER_9_25
*15857 FILLER_9_256
*15858 FILLER_9_263
*15859 FILLER_9_270
*15860 FILLER_9_277
*15861 FILLER_9_284
*15862 FILLER_9_291
*15863 FILLER_9_298
*15864 FILLER_9_305
*15865 FILLER_9_312
*15866 FILLER_9_319
*15867 FILLER_9_32
*15868 FILLER_9_326
*15869 FILLER_9_333
*15870 FILLER_9_340
*15871 FILLER_9_347
*15872 FILLER_9_354
*15873 FILLER_9_361
*15874 FILLER_9_368
*15875 FILLER_9_375
*15876 FILLER_9_382
*15877 FILLER_9_389
*15878 FILLER_9_39
*15879 FILLER_9_396
*15880 FILLER_9_4
*15881 FILLER_9_403
*15882 FILLER_9_410
*15883 FILLER_9_417
*15884 FILLER_9_424
*15885 FILLER_9_431
*15886 FILLER_9_438
*15887 FILLER_9_445
*15888 FILLER_9_452
*15889 FILLER_9_459
*15890 FILLER_9_46
*15891 FILLER_9_466
*15892 FILLER_9_473
*15893 FILLER_9_480
*15894 FILLER_9_487
*15895 FILLER_9_494
*15896 FILLER_9_501
*15897 FILLER_9_508
*15898 FILLER_9_515
*15899 FILLER_9_522
*15900 FILLER_9_529
*15901 FILLER_9_53
*15902 FILLER_9_536
*15903 FILLER_9_543
*15904 FILLER_9_550
*15905 FILLER_9_557
*15906 FILLER_9_564
*15907 FILLER_9_571
*15908 FILLER_9_578
*15909 FILLER_9_585
*15910 FILLER_9_592
*15911 FILLER_9_599
*15912 FILLER_9_60
*15913 FILLER_9_606
*15914 FILLER_9_613
*15915 FILLER_9_620
*15916 FILLER_9_627
*15917 FILLER_9_634
*15918 FILLER_9_641
*15919 FILLER_9_648
*15920 FILLER_9_655
*15921 FILLER_9_662
*15922 FILLER_9_669
*15923 FILLER_9_67
*15924 FILLER_9_676
*15925 FILLER_9_683
*15926 FILLER_9_690
*15927 FILLER_9_697
*15928 FILLER_9_704
*15929 FILLER_9_711
*15930 FILLER_9_718
*15931 FILLER_9_725
*15932 FILLER_9_732
*15933 FILLER_9_739
*15934 FILLER_9_74
*15935 FILLER_9_746
*15936 FILLER_9_753
*15937 FILLER_9_760
*15938 FILLER_9_767
*15939 FILLER_9_774
*15940 FILLER_9_781
*15941 FILLER_9_788
*15942 FILLER_9_795
*15943 FILLER_9_802
*15944 FILLER_9_809
*15945 FILLER_9_81
*15946 FILLER_9_816
*15947 FILLER_9_823
*15948 FILLER_9_830
*15949 FILLER_9_837
*15950 FILLER_9_844
*15951 FILLER_9_851
*15952 FILLER_9_858
*15953 FILLER_9_865
*15954 FILLER_9_872
*15955 FILLER_9_879
*15956 FILLER_9_88
*15957 FILLER_9_886
*15958 FILLER_9_893
*15959 FILLER_9_900
*15960 FILLER_9_907
*15961 FILLER_9_914
*15962 FILLER_9_921
*15963 FILLER_9_928
*15964 FILLER_9_935
*15965 FILLER_9_942
*15966 FILLER_9_949
*15967 FILLER_9_95
*15968 FILLER_9_956
*15969 FILLER_9_963
*15970 FILLER_9_970
*15971 FILLER_9_977
*15972 FILLER_9_984
*15973 FILLER_9_991
*15974 FILLER_9_998
*15975 _069_
*15976 _070_
*15977 _071_
*15978 _072_
*15979 _073_
*15980 _074_
*15981 _075_
*15982 _076_
*15983 _077_
*15984 _078_
*15985 _079_
*15986 _080_
*15987 _081_
*15988 _082_
*15989 _083_
*15990 _084_
*15991 _085_
*15992 _086_
*15993 _087_
*15994 _088_
*15995 _089_
*15996 _090_
*15997 _091_
*15998 _092_
*15999 _093_
*16000 _094_
*16001 _095_
*16002 _096_
*16003 _097_
*16004 _098_
*16005 _099_
*16006 _100_
*16007 _101_
*16008 _102_
*16009 _103_
*16010 _104_
*16011 _105_
*16012 _106_
*16013 _107_
*16014 _108_
*16015 _109_
*16016 _110_
*16017 _111_
*16018 _112_
*16019 _113_
*16020 _114_
*16021 _115_
*16022 _116_
*16023 _117_
*16024 _118_
*16025 _119_
*16026 _120_
*16027 _121_
*16028 _122_
*16029 _123_
*16030 _124_
*16031 _125_
*16032 _126_
*16033 _127_
*16034 _128_
*16035 _129_
*16036 _130_
*16037 _131_
*16038 _132_
*16039 _133_
*16040 _134_
*16041 _135_
*16042 _136_
*16043 _137_
*16044 _138_
*16045 _139_
*16046 _140_
*16047 _141_
*16048 _142_
*16049 _143_
*16050 _144_
*16051 _145_
*16052 _146_
*16053 _147_
*16054 _148_
*16055 _149_
*16056 _150_
*16057 _151_
*16058 _152_
*16059 _153_
*16060 heichips26_example_large
*16061 heichips26_example_large_49
*16062 heichips26_example_large_50
*16063 heichips26_example_large_51
*16064 heichips26_example_large_52
*16065 heichips26_example_large_53
*16066 heichips26_example_large_54
*16067 heichips26_example_large_55
*16068 heichips26_example_large_56
*16069 heichips26_example_large_57
*16070 heichips26_example_large_58
*16071 heichips26_example_large_59
*16072 heichips26_example_large_60
*16073 heichips26_example_large_61
*16074 heichips26_example_large_62
*16075 heichips26_example_large_63
*16076 heichips26_example_large_64
*16077 heichips26_example_large_65
*16078 heichips26_example_large_66
*16079 heichips26_example_large_67
*16080 heichips26_example_large_68
*16081 heichips26_example_large_69
*16082 heichips26_example_large_70
*16083 heichips26_example_large_71
*16084 heichips26_example_large_72
*16085 heichips26_example_large_73
*16086 heichips26_example_large_74
*16087 heichips26_example_large_75
*16088 heichips26_example_large_76
*16089 heichips26_example_large_77
*16090 heichips26_example_large_78
*16091 heichips26_example_large_79
*16092 input1
*16093 input10
*16094 input11
*16095 input12
*16096 input13
*16097 input14
*16098 input15
*16099 input16
*16100 input17
*16101 input18
*16102 input19
*16103 input2
*16104 input20
*16105 input21
*16106 input22
*16107 input23
*16108 input24
*16109 input25
*16110 input26
*16111 input27
*16112 input28
*16113 input29
*16114 input3
*16115 input30
*16116 input31
*16117 input32
*16118 input4
*16119 input5
*16120 input6
*16121 input7
*16122 input8
*16123 input9
*16124 output33
*16125 output34
*16126 output35
*16127 output36
*16128 output37
*16129 output38
*16130 output39
*16131 output40
*16132 output41
*16133 output42
*16134 output43
*16135 output44
*16136 output45
*16137 output46
*16138 output47
*16139 output48

*PORTS
clk I
ena I
rst_n I
ui_in[0] I
ui_in[10] I
ui_in[11] I
ui_in[12] I
ui_in[13] I
ui_in[14] I
ui_in[15] I
ui_in[1] I
ui_in[2] I
ui_in[3] I
ui_in[4] I
ui_in[5] I
ui_in[6] I
ui_in[7] I
ui_in[8] I
ui_in[9] I
uio_in[0] I
uio_in[10] I
uio_in[11] I
uio_in[12] I
uio_in[13] I
uio_in[14] I
uio_in[15] I
uio_in[1] I
uio_in[2] I
uio_in[3] I
uio_in[4] I
uio_in[5] I
uio_in[6] I
uio_in[7] I
uio_in[8] I
uio_in[9] I
uio_oe[0] O
uio_oe[10] O
uio_oe[11] O
uio_oe[12] O
uio_oe[13] O
uio_oe[14] O
uio_oe[15] O
uio_oe[1] O
uio_oe[2] O
uio_oe[3] O
uio_oe[4] O
uio_oe[5] O
uio_oe[6] O
uio_oe[7] O
uio_oe[8] O
uio_oe[9] O
uio_out[0] O
uio_out[10] O
uio_out[11] O
uio_out[12] O
uio_out[13] O
uio_out[14] O
uio_out[15] O
uio_out[1] O
uio_out[2] O
uio_out[3] O
uio_out[4] O
uio_out[5] O
uio_out[6] O
uio_out[7] O
uio_out[8] O
uio_out[9] O
uo_out[0] O
uo_out[10] O
uo_out[11] O
uo_out[12] O
uo_out[13] O
uo_out[14] O
uo_out[15] O
uo_out[1] O
uo_out[2] O
uo_out[3] O
uo_out[4] O
uo_out[5] O
uo_out[6] O
uo_out[7] O
uo_out[8] O
uo_out[9] O

*D_NET *6 0.00122672
*CONN
*P ui_in[0] I
*I *16092:A I *D sg13cmos5l_buf_1
*CAP
1 ui_in[0] 0.00030604
2 *16092:A 0.00030604
3 *16092:A uio_oe[15] 0
4 *16092:A *16122:A 0
5 *16092:A *173:18 0.00030749
6 *16092:A *202:8 0.00030715
*RES
1 ui_in[0] *16092:A 43.7286 
*END

*D_NET *7 0.000998385
*CONN
*P ui_in[10] I
*I *16103:A I *D sg13cmos5l_buf_1
*CAP
1 ui_in[10] 0.000289194
2 *16103:A 0.000289194
3 *16103:A *16099:A 0
4 *16103:A *16114:A 0
5 *16103:A *163:14 0.000209829
6 *16103:A *176:14 0.000210169
*RES
1 ui_in[10] *16103:A 43.399 
*END

*D_NET *8 0.0010505
*CONN
*P ui_in[11] I
*I *16114:A I *D sg13cmos5l_buf_1
*CAP
1 ui_in[11] 0.000282943
2 *16114:A 0.000282943
3 *16114:A *16118:A 0
4 *16114:A *163:14 0.000242138
5 *16114:A *176:14 0.000242478
6 *16103:A *16114:A 0
*RES
1 ui_in[11] *16114:A 43.296 
*END

*D_NET *9 0.000851636
*CONN
*P ui_in[12] I
*I *16118:A I *D sg13cmos5l_buf_1
*CAP
1 ui_in[12] 0.00024824
2 *16118:A 0.00024824
3 *16118:A *16119:A 0
4 *16118:A *163:14 0.000177493
5 *16118:A *176:14 0.000177663
6 *16114:A *16118:A 0
*RES
1 ui_in[12] *16118:A 42.8634 
*END

*D_NET *10 0.000853551
*CONN
*P ui_in[13] I
*I *16119:A I *D sg13cmos5l_buf_1
*CAP
1 ui_in[13] 0.000249446
2 *16119:A 0.000249446
3 *16119:A *16120:A 0
4 *16119:A *163:14 0.00017703
5 *16119:A *176:14 0.00017763
6 *16118:A *16119:A 0
*RES
1 ui_in[13] *16119:A 42.8634 
*END

*D_NET *11 0.000655503
*CONN
*P ui_in[14] I
*I *16120:A I *D sg13cmos5l_buf_1
*CAP
1 ui_in[14] 0.000215136
2 *16120:A 0.000215136
3 *16120:A *16121:A 0
4 *16120:A *163:14 0.000112548
5 *16120:A *176:14 0.000112684
6 *16119:A *16120:A 0
*RES
1 ui_in[14] *16120:A 42.4308 
*END

*D_NET *12 0.000655913
*CONN
*P ui_in[15] I
*I *16121:A I *D sg13cmos5l_buf_1
*CAP
1 ui_in[15] 0.000215306
2 *16121:A 0.000215306
3 *16121:A *16100:A 0
4 *16121:A *163:14 0.000112651
5 *16121:A *176:14 0.000112651
6 *16120:A *16121:A 0
*RES
1 ui_in[15] *16121:A 42.4308 
*END

*D_NET *13 0.000979437
*CONN
*P ui_in[1] I
*I *16122:A I *D sg13cmos5l_buf_1
*CAP
1 ui_in[1] 0.000279692
2 *16122:A 0.000279692
3 *16122:A *16123:A 0
4 *16122:A *173:18 0.000210196
5 *16122:A *202:8 0.000209856
6 *16092:A *16122:A 0
*RES
1 ui_in[1] *16122:A 43.399 
*END

*D_NET *14 0.000940214
*CONN
*P ui_in[2] I
*I *16123:A I *D sg13cmos5l_buf_1
*CAP
1 ui_in[2] 0.000276452
2 *16123:A 0.000276452
3 *16123:A *16093:A 0
4 *16123:A *156:8 0
5 *16123:A *173:18 0.000242511
6 *16123:A *202:8 0.0001448
7 *16122:A *16123:A 0
*RES
1 ui_in[2] *16123:A 43.296 
*END

*D_NET *15 0.000705861
*CONN
*P ui_in[3] I
*I *16093:A I *D sg13cmos5l_buf_1
*CAP
1 ui_in[3] 0.000264214
2 *16093:A 0.000264214
3 *16093:A *16094:A 0
4 *16093:A *156:8 0
5 *16093:A *157:10 0
6 *16093:A *163:20 0
7 *16093:A *173:18 0.000177433
8 *16093:A *174:16 0
9 *16123:A *16093:A 0
*RES
1 ui_in[3] *16093:A 42.8634 
*END

*D_NET *16 0.000703587
*CONN
*P ui_in[4] I
*I *16094:A I *D sg13cmos5l_buf_1
*CAP
1 ui_in[4] 0.000262962
2 *16094:A 0.000262962
3 *16094:A *16095:A 0
4 *16094:A *157:10 0
5 *16094:A *158:12 0
6 *16094:A *173:18 0.000177663
7 *16093:A *16094:A 0
*RES
1 ui_in[4] *16094:A 42.8634 
*END

*D_NET *17 0.000542584
*CONN
*P ui_in[5] I
*I *16095:A I *D sg13cmos5l_buf_1
*CAP
1 ui_in[5] 0.000214933
2 *16095:A 0.000214933
3 *16095:A *16096:A 0
4 *16095:A *158:12 0
5 *16095:A *163:20 0
6 *16095:A *173:18 0.000112717
7 *16094:A *16095:A 0
*RES
1 ui_in[5] *16095:A 42.4308 
*END

*D_NET *18 0.000549107
*CONN
*P ui_in[6] I
*I *16096:A I *D sg13cmos5l_buf_1
*CAP
1 ui_in[6] 0.000218212
2 *16096:A 0.000218212
3 *16096:A *16097:A 0
4 *16096:A *163:14 0
5 *16096:A *173:18 0.000112684
6 *16095:A *16096:A 0
*RES
1 ui_in[6] *16096:A 42.4308 
*END

*D_NET *19 0.000359127
*CONN
*P ui_in[7] I
*I *16097:A I *D sg13cmos5l_buf_1
*CAP
1 ui_in[7] 0.000179564
2 *16097:A 0.000179564
3 *16097:A *16098:A 0
4 *16097:A *178:16 0
5 *16096:A *16097:A 0
*RES
1 ui_in[7] *16097:A 41.9982 
*END

*D_NET *20 0.000371303
*CONN
*P ui_in[8] I
*I *16098:A I *D sg13cmos5l_buf_1
*CAP
1 ui_in[8] 0.000185652
2 *16098:A 0.000185652
3 *16098:A *16099:A 0
4 *16098:A *176:20 0
5 *16098:A *178:16 0
6 *16097:A *16098:A 0
*RES
1 ui_in[8] *16098:A 41.9982 
*END

*D_NET *21 0.00124672
*CONN
*P ui_in[9] I
*I *16099:A I *D sg13cmos5l_buf_1
*CAP
1 ui_in[9] 0.000316133
2 *16099:A 0.000316133
3 *16099:A *163:14 0.000307057
4 *16099:A *176:14 0.000307397
5 *16098:A *16099:A 0
6 *16103:A *16099:A 0
*RES
1 ui_in[9] *16099:A 43.7286 
*END

*D_NET *22 0.000359345
*CONN
*P uio_in[0] I
*I *16100:A I *D sg13cmos5l_buf_1
*CAP
1 uio_in[0] 0.000179673
2 *16100:A 0.000179673
3 *16100:A *16108:A 0
4 *16100:A *171:8 0
5 *16121:A *16100:A 0
*RES
1 uio_in[0] *16100:A 41.9982 
*END

*D_NET *23 0.000321339
*CONN
*P uio_in[10] I
*I *16101:A I *D sg13cmos5l_buf_1
*CAP
1 uio_in[10] 0.000160669
2 *16101:A 0.000160669
3 *16101:A *16102:A 0
4 *16101:A *16117:A 0
*RES
1 uio_in[10] *16101:A 41.9982 
*END

*D_NET *24 0.000946725
*CONN
*P uio_in[11] I
*I *16102:A I *D sg13cmos5l_buf_1
*CAP
1 uio_in[11] 0.000319837
2 *16102:A 0.000319837
3 *16102:A *16104:A 0
4 *16102:A *167:12 0
5 *16102:A *168:12 0.000307051
6 *16101:A *16102:A 0
*RES
1 uio_in[11] *16102:A 43.7286 
*END

*D_NET *25 0.000790682
*CONN
*P uio_in[12] I
*I *16104:A I *D sg13cmos5l_buf_1
*CAP
1 uio_in[12] 0.000290544
2 *16104:A 0.000290544
3 *16104:A *16105:A 0
4 *16104:A *167:8 0
5 *16104:A *167:12 0
6 *16104:A *168:12 0.000209593
7 *16102:A *16104:A 0
*RES
1 uio_in[12] *16104:A 43.399 
*END

*D_NET *26 0.000714494
*CONN
*P uio_in[13] I
*I *16105:A I *D sg13cmos5l_buf_1
*CAP
1 uio_in[13] 0.000284831
2 *16105:A 0.000284831
3 *16105:A *16106:A 0
4 *16105:A *167:8 0
5 *16105:A *168:12 0.000144833
6 *16105:A *169:12 0
7 *16104:A *16105:A 0
*RES
1 uio_in[13] *16105:A 42.5744 
*END

*D_NET *27 0.000514953
*CONN
*P uio_in[14] I
*I *16106:A I *D sg13cmos5l_buf_1
*CAP
1 uio_in[14] 0.000257476
2 *16106:A 0.000257476
3 *16106:A *16107:A 0
4 *16106:A *169:12 0
5 *16106:A *170:10 0
6 *16105:A *16106:A 0
*RES
1 uio_in[14] *16106:A 42.8634 
*END

*D_NET *28 0.000511434
*CONN
*P uio_in[15] I
*I *16107:A I *D sg13cmos5l_buf_1
*CAP
1 uio_in[15] 0.000255717
2 *16107:A 0.000255717
3 *16107:A *170:10 0
4 *16106:A *16107:A 0
*RES
1 uio_in[15] *16107:A 42.8634 
*END

*D_NET *29 0.000393527
*CONN
*P uio_in[1] I
*I *16108:A I *D sg13cmos5l_buf_1
*CAP
1 uio_in[1] 0.000196764
2 *16108:A 0.000196764
3 *16108:A *16109:A 0
4 *16108:A *171:8 0
5 *16100:A *16108:A 0
*RES
1 uio_in[1] *16108:A 41.9982 
*END

*D_NET *30 0.000976492
*CONN
*P uio_in[2] I
*I *16109:A I *D sg13cmos5l_buf_1
*CAP
1 uio_in[2] 0.000334613
2 *16109:A 0.000334613
3 *16109:A *16110:A 0
4 *16109:A *172:10 0
5 *16109:A *175:14 0
6 *16109:A *176:14 0.000307266
7 *16109:A *188:14 0
8 *16108:A *16109:A 0
*RES
1 uio_in[2] *16109:A 43.7286 
*END

*D_NET *31 0.000843331
*CONN
*P uio_in[3] I
*I *16110:A I *D sg13cmos5l_buf_1
*CAP
1 uio_in[3] 0.000316743
2 *16110:A 0.000316743
3 *16110:A *16111:A 0
4 *16110:A *173:8 0
5 *16110:A *175:14 0
6 *16110:A *176:14 0.000209846
7 *16109:A *16110:A 0
*RES
1 uio_in[3] *16110:A 43.399 
*END

*D_NET *32 0.000872856
*CONN
*P uio_in[4] I
*I *16111:A I *D sg13cmos5l_buf_1
*CAP
1 uio_in[4] 0.000315271
2 *16111:A 0.000315271
3 *16111:A *16112:A 0
4 *16111:A *175:14 0
5 *16111:A *176:14 0.000242314
6 *16110:A *16111:A 0
*RES
1 uio_in[4] *16111:A 43.296 
*END

*D_NET *33 0.000708619
*CONN
*P uio_in[5] I
*I *16112:A I *D sg13cmos5l_buf_1
*CAP
1 uio_in[5] 0.000265494
2 *16112:A 0.000265494
3 *16112:A *16113:A 0
4 *16112:A *164:10 0
5 *16112:A *168:12 0
6 *16112:A *175:14 0
7 *16112:A *176:14 0.00017763
8 *16111:A *16112:A 0
*RES
1 uio_in[5] *16112:A 42.8634 
*END

*D_NET *34 0.000641785
*CONN
*P uio_in[6] I
*I *16113:A I *D sg13cmos5l_buf_1
*CAP
1 uio_in[6] 0.000281169
2 *16113:A 0.000281169
3 *16113:A *16115:A 0
4 *16113:A *164:10 0
5 *16113:A *176:10 7.94462e-05
6 *16113:A *180:14 0
7 *16112:A *16113:A 0
*RES
1 uio_in[6] *16113:A 42.8634 
*END

*D_NET *35 0.0007773
*CONN
*P uio_in[7] I
*I *16115:A I *D sg13cmos5l_buf_1
*CAP
1 uio_in[7] 0.000188647
2 *16115:A 0.000188647
3 *16115:A *16116:A 0
4 *16115:A *167:12 0
5 *16115:A *178:8 0.000287672
6 *16115:A *180:14 0.000112335
7 *16113:A *16115:A 0
*RES
1 uio_in[7] *16115:A 42.4308 
*END

*D_NET *36 0.000531453
*CONN
*P uio_in[8] I
*I *16116:A I *D sg13cmos5l_buf_1
*CAP
1 uio_in[8] 0.000213988
2 *16116:A 0.000213988
3 *16116:A *16117:A 0
4 *16116:A *167:12 0
5 *16116:A *178:8 0
6 *16116:A *180:14 0.000103476
7 *16115:A *16116:A 0
*RES
1 uio_in[8] *16116:A 42.4308 
*END

*D_NET *37 0.000326932
*CONN
*P uio_in[9] I
*I *16117:A I *D sg13cmos5l_buf_1
*CAP
1 uio_in[9] 0.000163466
2 *16117:A 0.000163466
3 *16101:A *16117:A 0
4 *16116:A *16117:A 0
*RES
1 uio_in[9] *16117:A 41.9982 
*END

*D_NET *38 0.000454615
*CONN
*P uio_oe[0] O
*I *16060:L_LO O *D sg13cmos5l_tielo
*CAP
1 uio_oe[0] 0.000219607
2 *16060:L_LO 0.000219607
3 uio_oe[0] uio_oe[1] 0
4 uio_oe[0] uio_out[15] 1.54008e-05
5 uio_oe[0] *190:14 0
*RES
1 *16060:L_LO uio_oe[0] 42.7501 
*END

*D_NET *39 0.000672158
*CONN
*P uio_oe[10] O
*I *16070:L_LO O *D sg13cmos5l_tielo
*CAP
1 uio_oe[10] 0.000336079
2 *16070:L_LO 0.000336079
3 uio_oe[10] uio_oe[11] 0
4 uio_oe[10] uio_oe[9] 0
5 uio_oe[10] *155:6 0
*RES
1 *16070:L_LO uio_oe[10] 43.5123 
*END

*D_NET *40 0.000516819
*CONN
*P uio_oe[11] O
*I *16071:L_LO O *D sg13cmos5l_tielo
*CAP
1 uio_oe[11] 0.000196876
2 *16071:L_LO 0.000196876
3 uio_oe[11] uio_oe[12] 0
4 uio_oe[11] *155:6 0
5 uio_oe[11] *171:18 0
6 uio_oe[11] *173:18 4.78524e-05
7 uio_oe[11] *173:22 7.52149e-05
8 uio_oe[10] uio_oe[11] 0
*RES
1 *16071:L_LO uio_oe[11] 42.2145 
*END

*D_NET *41 0.000778056
*CONN
*P uio_oe[12] O
*I *16072:L_LO O *D sg13cmos5l_tielo
*CAP
1 uio_oe[12] 0.000283968
2 *16072:L_LO 0.000283968
3 uio_oe[12] uio_oe[13] 0
4 uio_oe[12] *155:6 0
5 uio_oe[12] *171:18 0
6 uio_oe[12] *173:18 0.00021012
7 uio_oe[11] uio_oe[12] 0
*RES
1 *16072:L_LO uio_oe[12] 43.0797 
*END

*D_NET *42 0.000293411
*CONN
*P uio_oe[13] O
*I *16073:L_LO O *D sg13cmos5l_tielo
*CAP
1 uio_oe[13] 0.000146705
2 *16073:L_LO 0.000146705
3 uio_oe[13] uio_oe[14] 0
4 uio_oe[12] uio_oe[13] 0
*RES
1 *16073:L_LO uio_oe[13] 41.6789 
*END

*D_NET *43 0.000735026
*CONN
*P uio_oe[14] O
*I *16074:L_LO O *D sg13cmos5l_tielo
*CAP
1 uio_oe[14] 0.000222372
2 *16074:L_LO 0.000222372
3 uio_oe[14] uio_oe[15] 0
4 uio_oe[14] *173:18 0.00014514
5 uio_oe[14] *202:8 0.00014514
6 uio_oe[13] uio_oe[14] 0
*RES
1 *16074:L_LO uio_oe[14] 42.6471 
*END

*D_NET *44 0.000538725
*CONN
*P uio_oe[15] O
*I *16075:L_LO O *D sg13cmos5l_tielo
*CAP
1 uio_oe[15] 0.000189136
2 *16075:L_LO 0.000189136
3 uio_oe[15] *173:18 8.02267e-05
4 uio_oe[15] *202:8 8.02267e-05
5 uio_oe[14] uio_oe[15] 0
6 *16092:A uio_oe[15] 0
*RES
1 *16075:L_LO uio_oe[15] 42.2145 
*END

*D_NET *45 0.000608256
*CONN
*P uio_oe[1] O
*I *16061:L_LO O *D sg13cmos5l_tielo
*CAP
1 uio_oe[1] 0.000304128
2 *16061:L_LO 0.000304128
3 uio_oe[1] uio_oe[2] 0
4 uio_oe[0] uio_oe[1] 0
*RES
1 *16061:L_LO uio_oe[1] 43.5123 
*END

*D_NET *46 0.000390041
*CONN
*P uio_oe[2] O
*I *16062:L_LO O *D sg13cmos5l_tielo
*CAP
1 uio_oe[2] 0.00019502
2 *16062:L_LO 0.00019502
3 uio_oe[2] uio_oe[3] 0
4 uio_oe[1] uio_oe[2] 0
*RES
1 *16062:L_LO uio_oe[2] 42.2145 
*END

*D_NET *47 0.000560556
*CONN
*P uio_oe[3] O
*I *16063:L_LO O *D sg13cmos5l_tielo
*CAP
1 uio_oe[3] 0.000280278
2 *16063:L_LO 0.000280278
3 uio_oe[3] uio_oe[4] 0
4 uio_oe[3] *155:6 0
5 uio_oe[2] uio_oe[3] 0
*RES
1 *16063:L_LO uio_oe[3] 43.0797 
*END

*D_NET *48 0.000260043
*CONN
*P uio_oe[4] O
*I *16064:L_LO O *D sg13cmos5l_tielo
*CAP
1 uio_oe[4] 0.000130021
2 *16064:L_LO 0.000130021
3 uio_oe[4] uio_oe[5] 0
4 uio_oe[3] uio_oe[4] 0
*RES
1 *16064:L_LO uio_oe[4] 41.6789 
*END

*D_NET *49 0.000458875
*CONN
*P uio_oe[5] O
*I *16065:L_LO O *D sg13cmos5l_tielo
*CAP
1 uio_oe[5] 0.000229437
2 *16065:L_LO 0.000229437
3 uio_oe[5] uio_oe[6] 0
4 uio_oe[5] *155:6 0
5 uio_oe[4] uio_oe[5] 0
*RES
1 *16065:L_LO uio_oe[5] 42.6471 
*END

*D_NET *50 0.000384094
*CONN
*P uio_oe[6] O
*I *16066:L_LO O *D sg13cmos5l_tielo
*CAP
1 uio_oe[6] 0.000192047
2 *16066:L_LO 0.000192047
3 uio_oe[6] uio_oe[7] 0
4 uio_oe[6] *155:6 0
5 uio_oe[5] uio_oe[6] 0
*RES
1 *16066:L_LO uio_oe[6] 42.2145 
*END

*D_NET *51 0.000578241
*CONN
*P uio_oe[7] O
*I *16067:L_LO O *D sg13cmos5l_tielo
*CAP
1 uio_oe[7] 0.00028912
2 *16067:L_LO 0.00028912
3 uio_oe[7] uio_oe[8] 0
4 uio_oe[7] *155:6 0
5 uio_oe[6] uio_oe[7] 0
*RES
1 *16067:L_LO uio_oe[7] 43.0797 
*END

*D_NET *52 0.000757105
*CONN
*P uio_oe[8] O
*I *16068:L_LO O *D sg13cmos5l_tielo
*CAP
1 uio_oe[8] 0.000370852
2 *16068:L_LO 0.000370852
3 uio_oe[8] uio_oe[9] 1.54008e-05
4 uio_oe[8] *155:6 0
5 uio_oe[7] uio_oe[8] 0
*RES
1 *16068:L_LO uio_oe[8] 43.9449 
*END

*D_NET *53 0.000469276
*CONN
*P uio_oe[9] O
*I *16069:L_LO O *D sg13cmos5l_tielo
*CAP
1 uio_oe[9] 0.000226938
2 *16069:L_LO 0.000226938
3 uio_oe[9] *155:6 0
4 uio_oe[10] uio_oe[9] 0
5 uio_oe[8] uio_oe[9] 1.54008e-05
*RES
1 *16069:L_LO uio_oe[9] 42.7501 
*END

*D_NET *54 0.000390975
*CONN
*P uio_out[0] O
*I *16076:L_LO O *D sg13cmos5l_tielo
*CAP
1 uio_out[0] 0.000195488
2 *16076:L_LO 0.000195488
3 uio_out[0] uio_out[1] 0
4 uio_out[0] uo_out[15] 0
5 uio_out[0] *181:20 0
*RES
1 *16076:L_LO uio_out[0] 42.2145 
*END

*D_NET *55 0.000523001
*CONN
*P uio_out[10] O
*I *16086:L_LO O *D sg13cmos5l_tielo
*CAP
1 uio_out[10] 0.0002615
2 *16086:L_LO 0.0002615
3 uio_out[10] uio_out[11] 0
4 uio_out[10] uio_out[9] 0
5 uio_out[10] *181:20 0
*RES
1 *16086:L_LO uio_out[10] 43.0797 
*END

*D_NET *56 0.000260043
*CONN
*P uio_out[11] O
*I *16087:L_LO O *D sg13cmos5l_tielo
*CAP
1 uio_out[11] 0.000130021
2 *16087:L_LO 0.000130021
3 uio_out[11] uio_out[12] 0
4 uio_out[10] uio_out[11] 0
*RES
1 *16087:L_LO uio_out[11] 41.6789 
*END

*D_NET *57 0.000435089
*CONN
*P uio_out[12] O
*I *16088:L_LO O *D sg13cmos5l_tielo
*CAP
1 uio_out[12] 0.000217544
2 *16088:L_LO 0.000217544
3 uio_out[12] uio_out[13] 0
4 uio_out[12] *181:20 0
5 uio_out[11] uio_out[12] 0
*RES
1 *16088:L_LO uio_out[12] 42.6471 
*END

*D_NET *58 0.000365245
*CONN
*P uio_out[13] O
*I *16089:L_LO O *D sg13cmos5l_tielo
*CAP
1 uio_out[13] 0.000182622
2 *16089:L_LO 0.000182622
3 uio_out[13] uio_out[14] 0
4 uio_out[13] *181:20 0
5 uio_out[12] uio_out[13] 0
*RES
1 *16089:L_LO uio_out[13] 42.2145 
*END

*D_NET *59 0.000539707
*CONN
*P uio_out[14] O
*I *16090:L_LO O *D sg13cmos5l_tielo
*CAP
1 uio_out[14] 0.000269854
2 *16090:L_LO 0.000269854
3 uio_out[14] uio_out[15] 0
4 uio_out[14] *190:14 0
5 uio_out[13] uio_out[14] 0
*RES
1 *16090:L_LO uio_out[14] 43.0797 
*END

*D_NET *60 0.000686483
*CONN
*P uio_out[15] O
*I *16091:L_LO O *D sg13cmos5l_tielo
*CAP
1 uio_out[15] 0.000335541
2 *16091:L_LO 0.000335541
3 uio_out[15] *190:14 0
4 uio_oe[0] uio_out[15] 1.54008e-05
5 uio_out[14] uio_out[15] 0
*RES
1 *16091:L_LO uio_out[15] 43.9449 
*END

*D_NET *61 0.000518792
*CONN
*P uio_out[1] O
*I *16077:L_LO O *D sg13cmos5l_tielo
*CAP
1 uio_out[1] 0.000259396
2 *16077:L_LO 0.000259396
3 uio_out[1] uio_out[2] 0
4 uio_out[1] *181:20 0
5 uio_out[0] uio_out[1] 0
*RES
1 *16077:L_LO uio_out[1] 43.0797 
*END

*D_NET *62 0.000260043
*CONN
*P uio_out[2] O
*I *16078:L_LO O *D sg13cmos5l_tielo
*CAP
1 uio_out[2] 0.000130021
2 *16078:L_LO 0.000130021
3 uio_out[2] uio_out[3] 0
4 uio_out[1] uio_out[2] 0
*RES
1 *16078:L_LO uio_out[2] 41.6789 
*END

*D_NET *63 0.000443036
*CONN
*P uio_out[3] O
*I *16079:L_LO O *D sg13cmos5l_tielo
*CAP
1 uio_out[3] 0.000221518
2 *16079:L_LO 0.000221518
3 uio_out[3] uio_out[4] 0
4 uio_out[3] *181:20 0
5 uio_out[2] uio_out[3] 0
*RES
1 *16079:L_LO uio_out[3] 42.6471 
*END

*D_NET *64 0.000367894
*CONN
*P uio_out[4] O
*I *16080:L_LO O *D sg13cmos5l_tielo
*CAP
1 uio_out[4] 0.000183947
2 *16080:L_LO 0.000183947
3 uio_out[4] uio_out[5] 0
4 uio_out[4] *181:20 0
5 uio_out[3] uio_out[4] 0
*RES
1 *16080:L_LO uio_out[4] 42.2145 
*END

*D_NET *65 0.000546402
*CONN
*P uio_out[5] O
*I *16081:L_LO O *D sg13cmos5l_tielo
*CAP
1 uio_out[5] 0.000273201
2 *16081:L_LO 0.000273201
3 uio_out[5] uio_out[6] 0
4 uio_out[5] *181:20 0
5 uio_out[4] uio_out[5] 0
*RES
1 *16081:L_LO uio_out[5] 43.0797 
*END

*D_NET *66 0.000715622
*CONN
*P uio_out[6] O
*I *16082:L_LO O *D sg13cmos5l_tielo
*CAP
1 uio_out[6] 0.000350111
2 *16082:L_LO 0.000350111
3 uio_out[6] uio_out[7] 1.54008e-05
4 uio_out[6] *181:20 0
5 uio_out[5] uio_out[6] 0
*RES
1 *16082:L_LO uio_out[6] 43.9449 
*END

*D_NET *67 0.000467698
*CONN
*P uio_out[7] O
*I *16083:L_LO O *D sg13cmos5l_tielo
*CAP
1 uio_out[7] 0.000226148
2 *16083:L_LO 0.000226148
3 uio_out[7] uio_out[8] 0
4 uio_out[7] *181:20 0
5 uio_out[6] uio_out[7] 1.54008e-05
*RES
1 *16083:L_LO uio_out[7] 42.7501 
*END

*D_NET *68 0.000610022
*CONN
*P uio_out[8] O
*I *16084:L_LO O *D sg13cmos5l_tielo
*CAP
1 uio_out[8] 0.000305011
2 *16084:L_LO 0.000305011
3 uio_out[8] uio_out[9] 0
4 uio_out[8] *181:20 0
5 uio_out[7] uio_out[8] 0
*RES
1 *16084:L_LO uio_out[8] 43.5123 
*END

*D_NET *69 0.000384979
*CONN
*P uio_out[9] O
*I *16085:L_LO O *D sg13cmos5l_tielo
*CAP
1 uio_out[9] 0.000192489
2 *16085:L_LO 0.000192489
3 uio_out[9] *181:20 0
4 uio_out[10] uio_out[9] 0
5 uio_out[8] uio_out[9] 0
*RES
1 *16085:L_LO uio_out[9] 42.2145 
*END

*D_NET *70 0.00025445
*CONN
*P uo_out[0] O
*I *16124:X O *D sg13cmos5l_buf_1
*CAP
1 uo_out[0] 0.000127225
2 *16124:X 0.000127225
3 uo_out[0] uo_out[1] 0
*RES
1 *16124:X uo_out[0] 41.6789 
*END

*D_NET *71 0.000256378
*CONN
*P uo_out[10] O
*I *16125:X O *D sg13cmos5l_buf_1
*CAP
1 uo_out[10] 0.000128189
2 *16125:X 0.000128189
3 uo_out[10] uo_out[11] 0
4 uo_out[10] uo_out[9] 0
*RES
1 *16125:X uo_out[10] 41.6789 
*END

*D_NET *72 0.000433887
*CONN
*P uo_out[11] O
*I *16126:X O *D sg13cmos5l_buf_1
*CAP
1 uo_out[11] 0.00017683
2 *16126:X 0.00017683
3 uo_out[11] uo_out[12] 0
4 uo_out[11] *16124:A 8.02267e-05
5 uo_out[10] uo_out[11] 0
*RES
1 *16126:X uo_out[11] 42.2145 
*END

*D_NET *73 0.000632361
*CONN
*P uo_out[12] O
*I *16127:X O *D sg13cmos5l_buf_1
*CAP
1 uo_out[12] 0.00026446
2 *16127:X 0.00026446
3 uo_out[12] uo_out[13] 0
4 uo_out[12] *16124:A 0.000103441
5 uo_out[12] *181:20 0
6 uo_out[11] uo_out[12] 0
*RES
1 *16127:X uo_out[12] 43.0797 
*END

*D_NET *74 0.000508672
*CONN
*P uo_out[13] O
*I *16128:X O *D sg13cmos5l_buf_1
*CAP
1 uo_out[13] 0.000254336
2 *16128:X 0.000254336
3 uo_out[13] uo_out[14] 0
4 uo_out[13] *181:20 0
5 uo_out[12] uo_out[13] 0
*RES
1 *16128:X uo_out[13] 42.8634 
*END

*D_NET *75 0.000473591
*CONN
*P uo_out[14] O
*I *16129:X O *D sg13cmos5l_buf_1
*CAP
1 uo_out[14] 0.000236796
2 *16129:X 0.000236796
3 uo_out[14] uo_out[15] 0
4 uo_out[14] *181:20 0
5 uo_out[13] uo_out[14] 0
*RES
1 *16129:X uo_out[14] 42.6471 
*END

*D_NET *76 0.000445116
*CONN
*P uo_out[15] O
*I *16130:X O *D sg13cmos5l_buf_1
*CAP
1 uo_out[15] 0.000222558
2 *16130:X 0.000222558
3 uo_out[15] *181:20 0
4 uio_out[0] uo_out[15] 0
5 uo_out[14] uo_out[15] 0
*RES
1 *16130:X uo_out[15] 42.4308 
*END

*D_NET *77 0.000255414
*CONN
*P uo_out[1] O
*I *16131:X O *D sg13cmos5l_buf_1
*CAP
1 uo_out[1] 0.000127707
2 *16131:X 0.000127707
3 uo_out[1] uo_out[2] 0
4 uo_out[0] uo_out[1] 0
*RES
1 *16131:X uo_out[1] 41.6789 
*END

*D_NET *78 0.00043387
*CONN
*P uo_out[2] O
*I *16132:X O *D sg13cmos5l_buf_1
*CAP
1 uo_out[2] 0.000176821
2 *16132:X 0.000176821
3 uo_out[2] uo_out[3] 0
4 uo_out[2] *16124:A 8.02269e-05
5 uo_out[1] uo_out[2] 0
*RES
1 *16132:X uo_out[2] 42.2145 
*END

*D_NET *79 0.000724607
*CONN
*P uo_out[3] O
*I *16133:X O *D sg13cmos5l_buf_1
*CAP
1 uo_out[3] 0.000257463
2 *16133:X 0.000257463
3 uo_out[3] uo_out[4] 0
4 uo_out[3] *16124:A 0.000209681
5 uo_out[2] uo_out[3] 0
*RES
1 *16133:X uo_out[3] 43.0797 
*END

*D_NET *80 0.000652208
*CONN
*P uo_out[4] O
*I *16134:X O *D sg13cmos5l_buf_1
*CAP
1 uo_out[4] 0.000237443
2 *16134:X 0.000237443
3 uo_out[4] uo_out[5] 0
4 uo_out[4] *16124:A 0.000177323
5 uo_out[3] uo_out[4] 0
*RES
1 *16134:X uo_out[4] 42.8634 
*END

*D_NET *81 0.000588072
*CONN
*P uo_out[5] O
*I *16135:X O *D sg13cmos5l_buf_1
*CAP
1 uo_out[5] 0.00022162
2 *16135:X 0.00022162
3 uo_out[5] uo_out[6] 0
4 uo_out[5] *16124:A 0.000144833
5 uo_out[4] uo_out[5] 0
*RES
1 *16135:X uo_out[5] 42.6471 
*END

*D_NET *82 0.000528061
*CONN
*P uo_out[6] O
*I *16136:X O *D sg13cmos5l_buf_1
*CAP
1 uo_out[6] 0.000208172
2 *16136:X 0.000208172
3 uo_out[6] uo_out[7] 0
4 uo_out[6] *16124:A 0.000111716
5 uo_out[5] uo_out[6] 0
*RES
1 *16136:X uo_out[6] 42.4308 
*END

*D_NET *83 0.000459144
*CONN
*P uo_out[7] O
*I *16137:X O *D sg13cmos5l_buf_1
*CAP
1 uo_out[7] 0.000189956
2 *16137:X 0.000189956
3 uo_out[7] uo_out[8] 0
4 uo_out[7] *16124:A 7.92329e-05
5 uo_out[6] uo_out[7] 0
*RES
1 *16137:X uo_out[7] 42.2145 
*END

*D_NET *84 0.000311579
*CONN
*P uo_out[8] O
*I *16138:X O *D sg13cmos5l_buf_1
*CAP
1 uo_out[8] 0.00015579
2 *16138:X 0.00015579
3 uo_out[8] uo_out[9] 0
4 uo_out[7] uo_out[8] 0
*RES
1 *16138:X uo_out[8] 41.9982 
*END

*D_NET *85 0.000257385
*CONN
*P uo_out[9] O
*I *16139:X O *D sg13cmos5l_buf_1
*CAP
1 uo_out[9] 0.000128693
2 *16139:X 0.000128693
3 uo_out[10] uo_out[9] 0
4 uo_out[8] uo_out[9] 0
*RES
1 *16139:X uo_out[9] 41.6789 
*END

*D_NET *86 0.00201867
*CONN
*I *16027:A I *D sg13cmos5l_inv_1
*I *16032:A I *D sg13cmos5l_xnor2_1
*I *16026:X O *D sg13cmos5l_xor2_1
*CAP
1 *16027:A 0.000530723
2 *16032:A 0
3 *16026:X 0.000478613
4 *86:10 0.00100934
5 *16027:A *16032:B 0
6 *16027:A *89:12 0
7 *16027:A *184:6 0
8 *86:10 *89:12 0
9 *86:10 *166:12 0
10 *86:10 *186:14 0
*RES
1 *16026:X *86:10 44.7174 
2 *86:10 *16032:A 40 
3 *86:10 *16027:A 45.6444 
*END

*D_NET *87 0.00216709
*CONN
*I *16038:A I *D sg13cmos5l_nor2_1
*I *16036:A1 I *D sg13cmos5l_o21ai_1
*I *16027:Y O *D sg13cmos5l_inv_1
*CAP
1 *16038:A 0.000720059
2 *16036:A1 0
3 *16027:Y 0.000363486
4 *87:8 0.00108354
5 *16038:A *16037:A 0
6 *16038:A *16038:B 0
7 *16038:A *89:27 0
8 *16038:A *91:10 0
9 *16038:A *98:10 0
10 *16038:A *154:10 0
11 *16038:A *154:25 0
12 *87:8 *16032:B 0
13 *87:8 *154:10 0
*RES
1 *16027:Y *87:8 43.5638 
2 *87:8 *16036:A1 40 
3 *87:8 *16038:A 46.5302 
*END

*D_NET *88 0.00118243
*CONN
*I *16029:B I *D sg13cmos5l_nor2_1
*I *16028:Y O *D sg13cmos5l_a22oi_1
*CAP
1 *16029:B 0
2 *16028:Y 0.000363186
3 *88:10 0.000363186
4 *88:10 *16021:B 6.36001e-05
5 *88:10 *151:8 0
6 *88:10 *162:8 0
7 *88:10 *162:12 0.000157274
8 *88:10 *179:29 0
9 *88:10 *180:30 1.49483e-05
10 *88:10 *180:32 0.000220238
*RES
1 *16028:Y *88:10 43.5896 
2 *88:10 *16029:B 40 
*END

*D_NET *89 0.00661706
*CONN
*I *16041:A1 I *D sg13cmos5l_a21o_1
*I *16031:B1 I *D sg13cmos5l_a21oi_1
*I *16029:Y O *D sg13cmos5l_nor2_1
*CAP
1 *16041:A1 0
2 *16031:B1 0.000284528
3 *16029:Y 0.000408765
4 *89:27 0.000483686
5 *89:12 0.00182211
6 *89:8 0.00146266
7 *16031:B1 *91:10 0.000436823
8 *16031:B1 *183:6 0
9 *89:8 *166:12 0
10 *89:8 *186:14 0.000728594
11 *89:12 *16032:B 0
12 *89:12 *91:10 0
13 *89:27 *91:10 0.000112558
14 *89:27 *98:10 0.000877333
15 *89:27 *183:6 0
16 *16027:A *89:12 0
17 *16038:A *89:27 0
18 *86:10 *89:12 0
*RES
1 *16029:Y *89:8 44.8616 
2 *89:8 *89:12 32.463 
3 *89:12 *16031:B1 23.3475 
4 *89:12 *89:27 47.2821 
5 *89:27 *16041:A1 20 
*END

*D_NET *90 0.0029169
*CONN
*I *16039:A I *D sg13cmos5l_and2_1
*I *16031:A2 I *D sg13cmos5l_a21oi_1
*I *16030:Y O *D sg13cmos5l_nor2b_1
*CAP
1 *16039:A 0.000693561
2 *16031:A2 0
3 *16030:Y 0.000764889
4 *90:10 0.00145845
5 *16039:A *148:53 0
6 *90:10 *148:40 0
7 *90:10 *183:6 0
*RES
1 *16030:Y *90:10 47.5911 
2 *90:10 *16031:A2 40 
3 *90:10 *16039:A 48.6726 
*END

*D_NET *91 0.00384754
*CONN
*I *16036:A2 I *D sg13cmos5l_o21ai_1
*I *16032:B I *D sg13cmos5l_xnor2_1
*I *16031:Y O *D sg13cmos5l_a21oi_1
*CAP
1 *16036:A2 5.12977e-05
2 *16032:B 0.000836881
3 *16031:Y 0.000757243
4 *91:10 0.00164542
5 *16032:B *154:10 0
6 *16032:B *184:6 0
7 *16032:B *187:14 0
8 *16036:A2 *16036:B1 7.31538e-06
9 *91:10 *98:10 0
10 *91:10 *183:6 0
11 *16027:A *16032:B 0
12 *16031:B1 *91:10 0.000436823
13 *16038:A *91:10 0
14 *87:8 *16032:B 0
15 *89:12 *16032:B 0
16 *89:12 *91:10 0
17 *89:27 *91:10 0.000112558
*RES
1 *16031:Y *91:10 47.931 
2 *91:10 *16032:B 48.9198 
3 *91:10 *16036:A2 40.4815 
*END

*D_NET *92 0.00482888
*CONN
*I *16035:A_N I *D sg13cmos5l_nand2b_1
*I *16040:A2 I *D sg13cmos5l_o21ai_1
*I *16033:Y O *D sg13cmos5l_nor2_1
*CAP
1 *16035:A_N 0
2 *16040:A2 0.000222016
3 *16033:Y 0
4 *92:12 0.00180452
5 *92:6 0.00158251
6 *16040:A2 *16040:B1 0.000145056
7 *16040:A2 *94:12 1.54556e-05
8 *92:12 *16034:A 0
9 *92:12 *93:12 0.000930365
10 *92:12 *177:22 0.000128951
11 *92:12 *199:8 0
*RES
1 *16033:Y *92:6 40 
2 *92:6 *92:12 37.2319 
3 *92:12 *16040:A2 22.5338 
4 *92:12 *16035:A_N 20 
*END

*D_NET *93 0.00492329
*CONN
*I *16040:B1 I *D sg13cmos5l_o21ai_1
*I *16035:B I *D sg13cmos5l_nand2b_1
*I *16034:Y O *D sg13cmos5l_nand2_1
*CAP
1 *16040:B1 0.000282953
2 *16035:B 0
3 *16034:Y 0
4 *93:12 0.00180358
5 *93:6 0.00152063
6 *16040:B1 *94:12 0.000225248
7 *16040:B1 *98:10 1.54556e-05
8 *93:12 *154:10 0
9 *93:12 *154:25 0
10 *93:12 *199:8 0
11 *16040:A2 *16040:B1 0.000145056
12 *92:12 *93:12 0.000930365
*RES
1 *16034:Y *93:6 40 
2 *93:6 *93:12 16.5933 
3 *93:12 *16035:B 40 
4 *93:12 *16040:B1 43.1312 
*END

*D_NET *94 0.00273849
*CONN
*I *16038:B I *D sg13cmos5l_nor2_1
*I *16037:A I *D sg13cmos5l_xnor2_1
*I *16035:Y O *D sg13cmos5l_nand2b_1
*CAP
1 *16038:B 0.000174946
2 *16037:A 0.000453342
3 *16035:Y 0.000483261
4 *94:12 0.00111155
5 *16037:A *16036:B1 0
6 *16037:A *154:25 0
7 *16038:B *96:8 0
8 *16038:B *98:10 0
9 *94:12 *98:10 0.000274693
10 *16038:A *16037:A 0
11 *16038:A *16038:B 0
12 *16040:B1 *94:12 0.000225248
13 *16040:A2 *94:12 1.54556e-05
*RES
1 *16035:Y *94:12 45.562 
2 *94:12 *16037:A 44.3466 
3 *94:12 *16038:B 41.8746 
*END

*D_NET *95 0.000172882
*CONN
*I *16037:B I *D sg13cmos5l_xnor2_1
*I *16036:Y O *D sg13cmos5l_o21ai_1
*CAP
1 *16037:B 8.64409e-05
2 *16036:Y 8.64409e-05
*RES
1 *16036:Y *16037:B 41.0918 
*END

*D_NET *96 0.00213053
*CONN
*I *16039:B I *D sg13cmos5l_and2_1
*I *16041:A2 I *D sg13cmos5l_a21o_1
*I *16038:Y O *D sg13cmos5l_nor2_1
*CAP
1 *16039:B 0.000474401
2 *16041:A2 9.15307e-05
3 *16038:Y 0.000208602
4 *96:8 0.000774533
5 *16039:B *16042:A2 0.000307134
6 *16039:B *98:10 0
7 *16039:B *100:8 0.000274331
8 *16039:B *148:53 0
9 *16041:A2 *100:8 0
10 *96:8 *98:10 0
11 *16038:B *96:8 0
*RES
1 *16038:Y *96:8 42.575 
2 *96:8 *16041:A2 40.8189 
3 *96:8 *16039:B 45.6444 
*END

*D_NET *97 0.000854901
*CONN
*I *16042:A2 I *D sg13cmos5l_a21o_1
*I *16039:X O *D sg13cmos5l_and2_1
*CAP
1 *16042:A2 0.000273884
2 *16039:X 0.000273884
3 *16042:A2 *148:53 0
4 *16039:B *16042:A2 0.000307134
*RES
1 *16039:X *16042:A2 43.3578 
*END

*D_NET *98 0.00246895
*CONN
*I *16041:B1 I *D sg13cmos5l_a21o_1
*I *16040:Y O *D sg13cmos5l_o21ai_1
*CAP
1 *16041:B1 3.26387e-05
2 *16040:Y 0.000618097
3 *98:10 0.000650736
4 *16041:B1 *99:10 0
5 *16038:A *98:10 0
6 *16038:B *98:10 0
7 *16039:B *98:10 0
8 *16040:B1 *98:10 1.54556e-05
9 *89:27 *98:10 0.000877333
10 *91:10 *98:10 0
11 *94:12 *98:10 0.000274693
12 *96:8 *98:10 0
*RES
1 *16040:Y *98:10 48.0855 
2 *98:10 *16041:B1 40.3193 
*END

*D_NET *99 0.000369079
*CONN
*I *16042:B1 I *D sg13cmos5l_a21o_1
*I *16041:X O *D sg13cmos5l_a21o_1
*CAP
1 *16042:B1 0
2 *16041:X 0.000184539
3 *99:10 0.000184539
4 *99:10 *100:8 0
5 *16041:B1 *99:10 0
*RES
1 *16041:X *99:10 41.8746 
2 *99:10 *16042:B1 40 
*END

*D_NET *100 0.006951
*CONN
*I *16052:B1 I *D sg13cmos5l_a221oi_1
*I *16044:B_N I *D sg13cmos5l_nor2b_1
*I *16045:A I *D sg13cmos5l_xnor2_1
*I *16042:X O *D sg13cmos5l_a21o_1
*CAP
1 *16052:B1 0.000635097
2 *16044:B_N 0
3 *16045:A 0
4 *16042:X 0.000807027
5 *100:21 0.00107112
6 *100:14 0.00171885
7 *100:8 0.00208986
8 *16052:B1 *16043:B 1.54449e-05
9 *16052:B1 *16050:A 0
10 *16052:B1 *16051:B 0
11 *16052:B1 *16051:C 0
12 *16052:B1 *16052:A1 0.000339267
13 *16052:B1 *106:10 0
14 *100:14 *16045:B 0
15 *100:14 *184:6 0
16 *100:21 *16045:B 0
17 *16039:B *100:8 0.000274331
18 *16041:A2 *100:8 0
19 *99:10 *100:8 0
*RES
1 *16042:X *100:8 48.9713 
2 *100:8 *100:14 36.3667 
3 *100:14 *16045:A 20 
4 *100:14 *100:21 3.9964 
5 *100:21 *16044:B_N 20 
6 *100:21 *16052:B1 27.4572 
*END

*D_NET *101 0.00221903
*CONN
*I *16050:A I *D sg13cmos5l_nor2b_1
*I *16044:A I *D sg13cmos5l_nor2b_1
*I *16045:B I *D sg13cmos5l_xnor2_1
*I *16043:Y O *D sg13cmos5l_xnor2_1
*CAP
1 *16050:A 0.000237804
2 *16044:A 0
3 *16045:B 0.000391334
4 *16043:Y 3.70627e-05
5 *101:23 0.000415815
6 *101:6 0.000606408
7 *16050:A *105:23 0.000242423
8 *101:23 *188:26 0.000288184
9 *16052:B1 *16050:A 0
10 *100:14 *16045:B 0
11 *100:21 *16045:B 0
*RES
1 *16043:Y *101:6 20.3193 
2 *101:6 *16045:B 23.6977 
3 *101:6 *101:23 42.0909 
4 *101:23 *16044:A 20 
5 *101:23 *16050:A 22.8634 
*END

*D_NET *102 0.00276314
*CONN
*I *16046:B1 I *D sg13cmos5l_a21oi_1
*I *16044:Y O *D sg13cmos5l_nor2b_1
*CAP
1 *16046:B1 0
2 *16044:Y 0.000544589
3 *102:8 0.000544589
4 *102:8 *105:23 0
5 *102:8 *167:27 0.00167396
*RES
1 *16044:Y *102:8 47.7662 
2 *102:8 *16046:B1 40 
*END

*D_NET *103 0.00054643
*CONN
*I *16049:A I *D sg13cmos5l_xnor2_1
*I *16046:Y O *D sg13cmos5l_a21oi_1
*CAP
1 *16049:A 0.00017735
2 *16046:Y 0.00017735
3 *16049:A *16049:B 8.02269e-05
4 *16049:A *198:20 0.000111502
*RES
1 *16046:Y *16049:A 41.8746 
*END

*D_NET *104 0.000538553
*CONN
*I *16051:C I *D sg13cmos5l_and3_1
*I *16047:X O *D sg13cmos5l_or2_1
*CAP
1 *16051:C 0.000269276
2 *16047:X 0.000269276
3 *16051:C *16051:B 0
4 *16051:C *16052:C1 0
5 *16052:B1 *16051:C 0
*RES
1 *16047:X *16051:C 42.6677 
*END

*D_NET *105 0.00242938
*CONN
*I *16050:B_N I *D sg13cmos5l_nor2b_1
*I *16049:B I *D sg13cmos5l_xnor2_1
*I *16048:X O *D sg13cmos5l_xor2_1
*CAP
1 *16050:B_N 0
2 *16049:B 9.1149e-05
3 *16048:X 0.000306668
4 *105:23 0.000652455
5 *105:6 0.00105027
6 *16049:B *186:12 0
7 *16049:B *198:20 6.18224e-06
8 *105:6 *186:12 0
9 *105:6 *198:20 0
10 *16049:A *16049:B 8.02269e-05
11 *16050:A *105:23 0.000242423
12 *102:8 *105:23 0
*RES
1 *16048:X *105:6 22.9149 
2 *105:6 *16049:B 21.1021 
3 *105:6 *105:23 47.1585 
4 *105:23 *16050:B_N 20 
*END

*D_NET *106 0.00106621
*CONN
*I *16052:B2 I *D sg13cmos5l_a221oi_1
*I *16050:Y O *D sg13cmos5l_nor2b_1
*CAP
1 *16052:B2 0
2 *16050:Y 0.000533103
3 *106:10 0.000533103
4 *106:10 *16047:B 0
5 *106:10 *16052:A2 0
6 *106:10 *198:31 0
7 *16052:B1 *106:10 0
*RES
1 *16050:Y *106:10 45.6444 
2 *106:10 *16052:B2 40 
*END

*D_NET *107 0.000162115
*CONN
*I *16052:C1 I *D sg13cmos5l_a221oi_1
*I *16051:X O *D sg13cmos5l_and3_1
*CAP
1 *16052:C1 8.10577e-05
2 *16051:X 8.10577e-05
3 *16052:C1 *16051:A 0
4 *16051:C *16052:C1 0
*RES
1 *16051:X *16052:C1 40.9167 
*END

*D_NET *108 0.0029637
*CONN
*I *16057:A1 I *D sg13cmos5l_o21ai_1
*I *16056:A I *D sg13cmos5l_xnor2_1
*I *16052:Y O *D sg13cmos5l_a221oi_1
*CAP
1 *16057:A1 0.000413359
2 *16056:A 0
3 *16052:Y 0.000658393
4 *108:20 0.000183239
5 *108:14 0.000815755
6 *108:10 0.000877549
7 *16057:A1 *16057:B1 0
8 *16057:A1 *16057:A2 1.54008e-05
9 *16057:A1 *187:14 0
10 *108:10 *16051:A 0
11 *108:14 *187:14 0
12 *108:20 *169:32 0
*RES
1 *16052:Y *108:10 47.9001 
2 *108:10 *108:14 22.0497 
3 *108:14 *108:20 42.0806 
4 *108:20 *16056:A 20 
5 *108:14 *16057:A1 23.9964 
*END

*D_NET *109 0.000662067
*CONN
*I *16057:B1 I *D sg13cmos5l_o21ai_1
*I *16053:Y O *D sg13cmos5l_nand2_1
*CAP
1 *16057:B1 0.000227078
2 *16053:Y 0.000227078
3 *16057:B1 *16057:A2 1.54008e-05
4 *16057:B1 *16059:A 1.54008e-05
5 *16057:B1 *187:10 0
6 *16057:B1 *199:23 0.000177109
7 *16057:A1 *16057:B1 0
*RES
1 *16053:Y *16057:B1 42.5647 
*END

*D_NET *110 0.000282272
*CONN
*I *16057:A2 I *D sg13cmos5l_o21ai_1
*I *16054:Y O *D sg13cmos5l_nor2_1
*CAP
1 *16057:A2 0.000125735
2 *16054:Y 0.000125735
3 *16057:A2 *16059:A 0
4 *16057:B1 *16057:A2 1.54008e-05
5 *16057:A1 *16057:A2 1.54008e-05
*RES
1 *16054:Y *16057:A2 41.3802 
*END

*D_NET *111 0.00122254
*CONN
*I *16056:B I *D sg13cmos5l_xnor2_1
*I *16055:X O *D sg13cmos5l_xor2_1
*CAP
1 *16056:B 0.000349919
2 *16055:X 0.000349919
3 *16056:B *16059:A 0
4 *16056:B *169:32 0
5 *16056:B *187:10 0
6 *16056:B *199:12 0.0003313
7 *16056:B *199:23 0.000191401
8 *16056:B *200:20 0
*RES
1 *16055:X *16056:B 43.914 
*END

*D_NET *112 0.000696141
*CONN
*I *16059:A I *D sg13cmos5l_xnor2_1
*I *16057:Y O *D sg13cmos5l_o21ai_1
*CAP
1 *16059:A 0.000332896
2 *16057:Y 0.000332896
3 *16059:A *16059:B 1.49483e-05
4 *16059:A *169:18 0
5 *16059:A *187:10 0
6 *16056:B *16059:A 0
7 *16057:B1 *16059:A 1.54008e-05
8 *16057:A2 *16059:A 0
*RES
1 *16057:Y *16059:A 43.708 
*END

*D_NET *113 0.000440049
*CONN
*I *16059:B I *D sg13cmos5l_xnor2_1
*I *16058:Y O *D sg13cmos5l_xnor2_1
*CAP
1 *16059:B 0.00021255
2 *16058:Y 0.00021255
3 *16059:B *169:18 0
4 *16059:A *16059:B 1.49483e-05
*RES
1 *16058:Y *16059:B 42.2454 
*END

*D_NET *114 0.00296673
*CONN
*I *15981:A1 I *D sg13cmos5l_o21ai_1
*I *15980:A I *D sg13cmos5l_xnor2_1
*I *15975:Y O *D sg13cmos5l_nand2_1
*CAP
1 *15981:A1 0
2 *15980:A 0
3 *15975:Y 0.000319953
4 *114:23 0.00115571
5 *114:10 0.00147566
6 *114:23 *15981:A2 1.54008e-05
7 *114:23 *118:8 0
8 *114:23 *184:6 0
9 *114:23 *197:12 0
*RES
1 *15975:Y *114:10 43.3887 
2 *114:10 *15980:A 40 
3 *114:10 *114:23 30.8974 
4 *114:23 *15981:A1 20 
*END

*D_NET *115 0.00104048
*CONN
*I *15981:B1 I *D sg13cmos5l_o21ai_1
*I *15977:Y O *D sg13cmos5l_nand2_1
*CAP
1 *15981:B1 0
2 *15977:Y 0.000367658
3 *115:10 0.000367658
4 *115:10 *15979:B 0.000242022
5 *115:10 *116:10 0
6 *115:10 *171:39 4.77425e-05
7 *115:10 *197:12 0
8 *115:10 *201:18 1.54008e-05
*RES
1 *15977:Y *115:10 43.9449 
2 *115:10 *15981:B1 40 
*END

*D_NET *116 0.0011736
*CONN
*I *15981:A2 I *D sg13cmos5l_o21ai_1
*I *15978:Y O *D sg13cmos5l_nor2_1
*CAP
1 *15981:A2 0.000172551
2 *15978:Y 0.000288253
3 *116:10 0.000460804
4 *15981:A2 *184:6 0
5 *15981:A2 *197:12 0
6 *116:10 *171:39 0.000236596
7 *116:10 *201:16 0
8 *114:23 *15981:A2 1.54008e-05
9 *115:10 *116:10 0
*RES
1 *15978:Y *116:10 43.5741 
2 *116:10 *15981:A2 41.6171 
*END

*D_NET *117 0.00206721
*CONN
*I *15980:B I *D sg13cmos5l_xnor2_1
*I *15979:X O *D sg13cmos5l_xor2_1
*CAP
1 *15980:B 0
2 *15979:X 0.0010336
3 *117:10 0.0010336
4 *117:10 *187:22 0
5 *117:10 *197:12 0
*RES
1 *15979:X *117:10 30.9695 
2 *117:10 *15980:B 20 
*END

*D_NET *118 0.00627611
*CONN
*I *15983:B_N I *D sg13cmos5l_nor2b_1
*I *15991:B1 I *D sg13cmos5l_a221oi_1
*I *15984:A I *D sg13cmos5l_xnor2_1
*I *15981:Y O *D sg13cmos5l_o21ai_1
*CAP
1 *15983:B_N 0.000388642
2 *15991:B1 0.000769505
3 *15984:A 0.000273985
4 *15981:Y 8.66086e-05
5 *118:21 0.00132646
6 *118:10 0.00120549
7 *118:8 0.0008498
8 *15983:B_N *15989:A 0
9 *15983:B_N *120:8 0
10 *15984:A *15984:B 0.000307226
11 *15984:A *15987:A1 0
12 *15984:A *172:24 0
13 *15991:B1 *15988:A 0
14 *15991:B1 *122:14 0.000923224
15 *15991:B1 *172:24 0
16 *118:8 *184:6 0.000145173
17 *118:21 *15984:B 0
18 *118:21 *202:53 0
19 *114:23 *118:8 0
*RES
1 *15981:Y *118:8 40.9682 
2 *118:8 *118:10 9.4966 
3 *118:10 *15984:A 43.1312 
4 *118:10 *118:21 1.8334 
5 *118:21 *15991:B1 48.755 
6 *118:21 *15983:B_N 44.223 
*END

*D_NET *119 0.00303184
*CONN
*I *15989:A I *D sg13cmos5l_nor2b_1
*I *15983:A I *D sg13cmos5l_nor2b_1
*I *15984:B I *D sg13cmos5l_xnor2_1
*I *15982:Y O *D sg13cmos5l_xnor2_1
*CAP
1 *15989:A 0.000416733
2 *15983:A 9.80115e-05
3 *15984:B 0.000278673
4 *15982:Y 2.99958e-05
5 *119:23 0.000596878
6 *119:8 0.000390803
7 *15984:B *15987:A1 0
8 *15984:B *15988:A 0
9 *15984:B *15988:B 0
10 *15984:B *120:8 0.000182524
11 *15984:B *202:53 0.000342965
12 *15989:A *15988:A 0
13 *119:8 *202:53 4.77425e-05
14 *119:23 *120:8 0.000265159
15 *119:23 *202:53 7.51285e-05
16 *15983:B_N *15989:A 0
17 *15984:A *15984:B 0.000307226
18 *118:21 *15984:B 0
*RES
1 *15982:Y *119:8 40.3193 
2 *119:8 *15984:B 43.8831 
3 *119:8 *119:23 21.339 
4 *119:23 *15983:A 21.1896 
5 *119:23 *15989:A 24.5835 
*END

*D_NET *120 0.000852583
*CONN
*I *15987:B1 I *D sg13cmos5l_a21oi_1
*I *15983:Y O *D sg13cmos5l_nor2b_1
*CAP
1 *15987:B1 0
2 *15983:Y 0.00020245
3 *120:8 0.00020245
4 *15983:B_N *120:8 0
5 *15984:B *120:8 0.000182524
6 *119:23 *120:8 0.000265159
*RES
1 *15983:Y *120:8 42.8222 
2 *120:8 *15987:B1 40 
*END

*D_NET *121 0.000416516
*CONN
*I *15990:C I *D sg13cmos5l_and3_1
*I *15985:X O *D sg13cmos5l_or2_1
*CAP
1 *15990:C 0
2 *15985:X 0.000168073
3 *121:10 0.000168073
4 *121:10 *122:8 0
5 *121:10 *126:16 0
6 *121:10 *156:27 8.03692e-05
7 *121:10 *173:37 0
8 *121:10 *202:16 0
*RES
1 *15985:X *121:10 41.8746 
2 *121:10 *15990:C 40 
*END

*D_NET *122 0.0045978
*CONN
*I *15988:A I *D sg13cmos5l_xnor2_1
*I *15989:B_N I *D sg13cmos5l_nor2b_1
*I *15986:X O *D sg13cmos5l_xor2_1
*CAP
1 *15988:A 0.00067097
2 *15989:B_N 0
3 *15986:X 0.000128254
4 *122:14 0.00124183
5 *122:8 0.000699119
6 *15988:A *15982:A 0.000145009
7 *15988:A *15988:B 0
8 *15988:A *172:24 0
9 *122:8 *173:37 0.000287758
10 *122:14 *15991:B2 0.000501634
11 *122:14 *15991:C1 0
12 *15984:B *15988:A 0
13 *15989:A *15988:A 0
14 *15991:B1 *15988:A 0
15 *15991:B1 *122:14 0.000923224
16 *121:10 *122:8 0
*RES
1 *15986:X *122:8 41.8334 
2 *122:8 *122:14 26.9731 
3 *122:14 *15989:B_N 20 
4 *122:14 *15988:A 27.0246 
*END

*D_NET *123 0.00044367
*CONN
*I *15988:B I *D sg13cmos5l_xnor2_1
*I *15987:Y O *D sg13cmos5l_a21oi_1
*CAP
1 *15988:B 0.000221835
2 *15987:Y 0.000221835
3 *15988:B *15982:A 0
4 *15984:B *15988:B 0
5 *15988:A *15988:B 0
*RES
1 *15987:Y *15988:B 42.3484 
*END

*D_NET *124 0.00176752
*CONN
*I *15991:B2 I *D sg13cmos5l_a221oi_1
*I *15989:Y O *D sg13cmos5l_nor2b_1
*CAP
1 *15991:B2 0.000625215
2 *15989:Y 0.000625215
3 *15991:B2 *15991:C1 1.54556e-05
4 *15991:B2 *126:10 0
5 *122:14 *15991:B2 0.000501634
*RES
1 *15989:Y *15991:B2 46.8907 
*END

*D_NET *125 0.00071638
*CONN
*I *15991:C1 I *D sg13cmos5l_a221oi_1
*I *15990:X O *D sg13cmos5l_and3_1
*CAP
1 *15991:C1 0.000229306
2 *15990:X 0.000229306
3 *15991:C1 *126:10 0.000242313
4 *15991:C1 *172:22 0
5 *15991:C1 *172:24 0
6 *15991:B2 *15991:C1 1.54556e-05
7 *122:14 *15991:C1 0
*RES
1 *15990:X *15991:C1 42.7089 
*END

*D_NET *126 0.00909275
*CONN
*I *16005:A1 I *D sg13cmos5l_o21ai_1
*I *16017:A1 I *D sg13cmos5l_o21ai_1
*I *15993:A I *D sg13cmos5l_nor2b_1
*I *15994:A I *D sg13cmos5l_xnor2_1
*I *15991:Y O *D sg13cmos5l_a221oi_1
*CAP
1 *16005:A1 0
2 *16017:A1 0
3 *15993:A 0.000764638
4 *15994:A 0
5 *15991:Y 0.000371339
6 *126:46 0.000842069
7 *126:36 0.00190924
8 *126:16 0.00174097
9 *126:10 0.00241484
10 *15993:A *15994:B 0
11 *15993:A *184:6 0
12 *126:10 *172:22 0
13 *126:16 *15994:B 0
14 *126:16 *156:12 0
15 *126:16 *184:6 0
16 *126:16 *192:6 0
17 *126:16 *196:12 0
18 *126:16 *202:12 0
19 *126:36 *16005:A2 1.54008e-05
20 *126:36 *16007:B 0
21 *126:36 *138:10 0
22 *126:36 *194:6 0
23 *126:46 *16013:B 0
24 *126:46 *16016:B 0
25 *126:46 *16017:A2 0
26 *126:46 *129:44 0
27 *126:46 *134:24 0.000112648
28 *126:46 *134:26 0.00059892
29 *126:46 *142:24 8.03692e-05
30 *15991:B2 *126:10 0
31 *15991:C1 *126:10 0.000242313
32 *121:10 *126:16 0
*RES
1 *15991:Y *126:10 44.1303 
2 *126:10 *126:16 31.2064 
3 *126:16 *15994:A 20 
4 *126:16 *15993:A 28.7344 
5 *126:10 *126:36 32.0716 
6 *126:36 *126:46 49.3936 
7 *126:46 *16017:A1 20 
8 *126:36 *16005:A1 20 
*END

*D_NET *127 0.00363929
*CONN
*I *16004:C I *D sg13cmos5l_nand3b_1
*I *15993:B_N I *D sg13cmos5l_nor2b_1
*I *15994:B I *D sg13cmos5l_xnor2_1
*I *15992:X O *D sg13cmos5l_xor2_1
*CAP
1 *16004:C 5.2528e-05
2 *15993:B_N 0
3 *15994:B 0.000829577
4 *15992:X 9.72559e-05
5 *127:14 0.000997632
6 *127:10 0.000317839
7 *15994:B *196:12 0
8 *16004:C *129:19 0.00023464
9 *16004:C *129:36 5.30319e-05
10 *16004:C *130:18 0.000265991
11 *127:10 *129:19 0.000395396
12 *127:10 *130:18 0.000395396
13 *127:14 *196:10 0
14 *127:14 *196:12 0
15 *15993:A *15994:B 0
16 *126:16 *15994:B 0
*RES
1 *15992:X *127:10 42.1527 
2 *127:10 *127:14 21.8334 
3 *127:14 *15994:B 29.2288 
4 *127:14 *15993:B_N 20 
5 *127:10 *16004:C 41.339 
*END

*D_NET *128 0.000901441
*CONN
*I *15998:B1 I *D sg13cmos5l_a21o_1
*I *15993:Y O *D sg13cmos5l_nor2b_1
*CAP
1 *15998:B1 0.000147465
2 *15993:Y 0.000295528
3 *128:8 0.000442992
4 *15998:B1 *15998:A2 0
5 *15998:B1 *15998:A1 1.54556e-05
6 *15998:B1 *184:6 0
7 *15998:B1 *197:8 0
8 *128:8 *130:18 0
*RES
1 *15993:Y *128:8 43.5638 
2 *128:8 *15998:B1 41.4008 
*END

*D_NET *129 0.00832732
*CONN
*I *16003:A I *D sg13cmos5l_or2_1
*I *16015:A I *D sg13cmos5l_nor4_1
*I *16004:A_N I *D sg13cmos5l_nand3b_1
*I *15997:A_N I *D sg13cmos5l_nand2b_1
*I *15995:Y O *D sg13cmos5l_nor2_1
*CAP
1 *16003:A 0
2 *16015:A 0
3 *16004:A_N 3.13338e-05
4 *15997:A_N 2.74216e-05
5 *15995:Y 0.000495617
6 *129:44 0.000408831
7 *129:36 0.00148443
8 *129:19 0.00176846
9 *129:8 0.00118456
10 *15997:A_N *15999:B 0
11 *15997:A_N *186:14 4.78192e-05
12 *16004:A_N *196:10 4.77425e-05
13 *129:8 *15999:B 0
14 *129:8 *186:14 0.00079308
15 *129:19 *130:18 0
16 *129:19 *132:8 0.000660228
17 *129:19 *157:38 0.000288173
18 *129:19 *174:39 0.000181192
19 *129:36 *16003:B 0
20 *129:36 *16005:B1 0
21 *129:36 *137:8 0
22 *129:44 *134:24 8.03692e-05
23 *129:44 *135:27 0
24 *129:44 *142:24 0.000129588
25 *129:44 *142:32 1.54008e-05
26 *16004:C *129:19 0.00023464
27 *16004:C *129:36 5.30319e-05
28 *126:46 *129:44 0
29 *127:10 *129:19 0.000395396
*RES
1 *15995:Y *129:8 25.8916 
2 *129:8 *15997:A_N 20.3193 
3 *129:8 *129:19 28.755 
4 *129:19 *16004:A_N 40.3193 
5 *129:19 *129:36 32.1437 
6 *129:36 *129:44 44.9028 
7 *129:44 *16015:A 20 
8 *129:36 *16003:A 20 
*END

*D_NET *130 0.00437281
*CONN
*I *15997:B I *D sg13cmos5l_nand2b_1
*I *16004:B I *D sg13cmos5l_nand3b_1
*I *15996:Y O *D sg13cmos5l_nand2_1
*CAP
1 *15997:B 0
2 *16004:B 0
3 *15996:Y 0.000815921
4 *130:18 0.000895494
5 *130:10 0.00171142
6 *130:10 *15999:B 0
7 *130:10 *132:8 0
8 *130:10 *172:14 0
9 *130:18 *132:8 0
10 *130:18 *157:38 0.000288588
11 *130:18 *183:6 0
12 *16004:C *130:18 0.000265991
13 *127:10 *130:18 0.000395396
14 *128:8 *130:18 0
15 *129:19 *130:18 0
*RES
1 *15996:Y *130:10 48.5799 
2 *130:10 *130:18 30.1352 
3 *130:18 *16004:B 20 
4 *130:10 *15997:B 40 
*END

*D_NET *131 0.00126793
*CONN
*I *15999:A I *D sg13cmos5l_xnor2_1
*I *15997:Y O *D sg13cmos5l_nand2b_1
*CAP
1 *15999:A 0.000366924
2 *15997:Y 0.000366924
3 *15999:A *15999:B 0.000534083
4 *15999:A *186:14 0
*RES
1 *15997:Y *15999:A 44.4084 
*END

*D_NET *132 0.00273507
*CONN
*I *15999:B I *D sg13cmos5l_xnor2_1
*I *15998:X O *D sg13cmos5l_a21o_1
*CAP
1 *15999:B 0.000375375
2 *15998:X 0.000395002
3 *132:8 0.000770377
4 *15999:B *186:14 0
5 *15997:A_N *15999:B 0
6 *15999:A *15999:B 0.000534083
7 *129:8 *15999:B 0
8 *129:19 *132:8 0.000660228
9 *130:10 *15999:B 0
10 *130:10 *132:8 0
11 *130:18 *132:8 0
*RES
1 *15998:X *132:8 44.7998 
2 *132:8 *15999:B 44.429 
*END

*D_NET *133 0.00533266
*CONN
*I *16014:A1 I *D sg13cmos5l_o21ai_1
*I *16011:A I *D sg13cmos5l_and2_1
*I *16000:Y O *D sg13cmos5l_nand2_1
*CAP
1 *16014:A1 0
2 *16011:A 0.00179079
3 *16000:Y 0.000291248
4 *133:12 0.00181522
5 *133:8 0.000315679
6 *16011:A *16012:B 0
7 *16011:A *16014:B1 0
8 *16011:A *16014:A2 1.49483e-05
9 *16011:A *139:10 0
10 *16011:A *145:10 0
11 *16011:A *148:12 0
12 *16011:A *178:28 0.000268233
13 *133:8 *141:8 0
14 *133:8 *160:8 0.000554119
15 *133:8 *178:28 0.000235314
16 *133:8 *178:46 0
17 *133:12 *16014:A2 4.71115e-05
*RES
1 *16000:Y *133:8 44.0582 
2 *133:8 *133:12 20.3193 
3 *133:12 *16011:A 38.7254 
4 *133:12 *16014:A1 20 
*END

*D_NET *134 0.0060138
*CONN
*I *16015:B I *D sg13cmos5l_nor4_1
*I *16013:A I *D sg13cmos5l_or3_1
*I *16006:A_N I *D sg13cmos5l_nand2b_1
*I *16007:A I *D sg13cmos5l_xnor2_1
*I *16001:Y O *D sg13cmos5l_xnor2_1
*CAP
1 *16015:B 0
2 *16013:A 0
3 *16006:A_N 4.77265e-05
4 *16007:A 0.00026973
5 *16001:Y 0.000784177
6 *134:26 0.00102444
7 *134:24 0.00100825
8 *134:8 0.00108544
9 *16007:A *16007:B 0.000339711
10 *134:8 *142:8 0
11 *134:8 *142:24 0
12 *134:8 *148:53 0.000209681
13 *134:24 *135:27 0
14 *134:24 *142:24 4.8279e-05
15 *134:26 *16012:B 0
16 *134:26 *16013:B 0.000404421
17 *134:26 *138:10 0
18 *134:26 *139:10 0
19 *134:26 *142:32 0
20 *126:46 *134:24 0.000112648
21 *126:46 *134:26 0.00059892
22 *129:44 *134:24 8.03692e-05
*RES
1 *16001:Y *134:8 27.8074 
2 *134:8 *134:24 43.09 
3 *134:24 *134:26 7.8018 
4 *134:26 *16007:A 23.3578 
5 *134:26 *16006:A_N 20.5974 
6 *134:24 *16013:A 20 
7 *134:8 *16015:B 20 
*END

*D_NET *135 0.00681395
*CONN
*I *16015:C I *D sg13cmos5l_nor4_1
*I *16003:B I *D sg13cmos5l_or2_1
*I *16002:Y O *D sg13cmos5l_a22oi_1
*CAP
1 *16015:C 0
2 *16003:B 0.000262865
3 *16002:Y 0
4 *135:27 0.000269464
5 *135:12 0.00208137
6 *135:6 0.00154904
7 *135:12 *157:10 0.000129029
8 *135:12 *157:25 0.00122351
9 *135:12 *174:24 0.00129868
10 *129:36 *16003:B 0
11 *129:44 *135:27 0
12 *134:24 *135:27 0
*RES
1 *16002:Y *135:6 40 
2 *135:6 *135:12 42.4849 
3 *135:12 *16003:B 22.8325 
4 *135:12 *135:27 43.3166 
5 *135:27 *16015:C 20 
*END

*D_NET *136 0.00100832
*CONN
*I *16005:B1 I *D sg13cmos5l_o21ai_1
*I *16003:X O *D sg13cmos5l_or2_1
*CAP
1 *16005:B1 0.000391639
2 *16003:X 0.000391639
3 *16005:B1 *16005:A2 0.000209637
4 *16005:B1 *138:10 1.54008e-05
5 *16005:B1 *142:32 0
6 *129:36 *16005:B1 0
*RES
1 *16003:X *16005:B1 44.4393 
*END

*D_NET *137 0.0036428
*CONN
*I *16013:B I *D sg13cmos5l_or3_1
*I *16005:A2 I *D sg13cmos5l_o21ai_1
*I *16004:Y O *D sg13cmos5l_nand3b_1
*CAP
1 *16013:B 0.000492867
2 *16005:A2 0.000124666
3 *16004:Y 0
4 *137:8 0.00150667
5 *137:6 0.000889138
6 *16013:B *142:24 0
7 *16013:B *142:32 0
8 *16005:B1 *16005:A2 0.000209637
9 *126:36 *16005:A2 1.54008e-05
10 *126:46 *16013:B 0
11 *129:36 *137:8 0
12 *134:26 *16013:B 0.000404421
*RES
1 *16004:Y *137:6 40 
2 *137:6 *137:8 10.2382 
3 *137:8 *16005:A2 41.4008 
4 *137:8 *16013:B 45.2736 
*END

*D_NET *138 0.00204737
*CONN
*I *16006:B I *D sg13cmos5l_nand2b_1
*I *16007:B I *D sg13cmos5l_xnor2_1
*I *16005:Y O *D sg13cmos5l_o21ai_1
*CAP
1 *16006:B 0.000190263
2 *16007:B 0.000180884
3 *16005:Y 0.000474983
4 *138:10 0.000846129
5 *16006:B *142:32 0
6 *138:10 *142:32 0
7 *16005:B1 *138:10 1.54008e-05
8 *16007:A *16007:B 0.000339711
9 *126:36 *16007:B 0
10 *126:36 *138:10 0
11 *134:26 *138:10 0
*RES
1 *16005:Y *138:10 45.0882 
2 *138:10 *16007:B 42.266 
3 *138:10 *16006:B 42.0806 
*END

*D_NET *139 0.000659771
*CONN
*I *16011:B I *D sg13cmos5l_and2_1
*I *16006:Y O *D sg13cmos5l_nand2b_1
*CAP
1 *16011:B 0
2 *16006:Y 0.000329886
3 *139:10 0.000329886
4 *139:10 *16012:B 0
5 *139:10 *142:32 0
6 *16011:A *139:10 0
7 *134:26 *139:10 0
*RES
1 *16006:Y *139:10 43.2342 
2 *139:10 *16011:B 40 
*END

*D_NET *140 0.000530719
*CONN
*I *16014:A2 I *D sg13cmos5l_o21ai_1
*I *16008:Y O *D sg13cmos5l_nor2_1
*CAP
1 *16014:A2 0.000226602
2 *16008:Y 0.000226602
3 *16014:A2 *16008:B 0
4 *16014:A2 *16014:B1 1.54556e-05
5 *16011:A *16014:A2 1.49483e-05
6 *133:12 *16014:A2 4.71115e-05
*RES
1 *16008:Y *16014:A2 42.4926 
*END

*D_NET *141 0.000792947
*CONN
*I *16014:B1 I *D sg13cmos5l_o21ai_1
*I *16009:Y O *D sg13cmos5l_nand2_1
*CAP
1 *16014:B1 0.000164405
2 *16009:Y 0.000103231
3 *141:8 0.000267636
4 *16014:B1 *145:10 0.00024222
5 *16011:A *16014:B1 0
6 *16014:A2 *16014:B1 1.54556e-05
7 *133:8 *141:8 0
*RES
1 *16009:Y *141:8 41.0918 
2 *141:8 *16014:B1 41.6171 
*END

*D_NET *142 0.00624189
*CONN
*I *16015:D I *D sg13cmos5l_nor4_1
*I *16013:C I *D sg13cmos5l_or3_1
*I *16012:A I *D sg13cmos5l_xor2_1
*I *16010:Y O *D sg13cmos5l_xnor2_1
*CAP
1 *16015:D 0
2 *16013:C 0
3 *16012:A 9.19583e-05
4 *16010:Y 0.00100229
5 *142:32 0.00122219
6 *142:24 0.00148553
7 *142:8 0.00135759
8 *16012:A *16012:B 0
9 *142:8 *16009:B 0
10 *142:8 *16016:B 0.000242313
11 *142:8 *16017:B1 0
12 *142:8 *148:12 0
13 *142:8 *148:53 0.000566365
14 *142:24 *16016:B 0
15 *142:24 *16017:B1 0
16 *16005:B1 *142:32 0
17 *16006:B *142:32 0
18 *16013:B *142:24 0
19 *16013:B *142:32 0
20 *126:46 *142:24 8.03692e-05
21 *129:44 *142:24 0.000129588
22 *129:44 *142:32 1.54008e-05
23 *134:8 *142:8 0
24 *134:8 *142:24 0
25 *134:24 *142:24 4.8279e-05
26 *134:26 *142:32 0
27 *138:10 *142:32 0
28 *139:10 *142:32 0
*RES
1 *16010:Y *142:8 30.7429 
2 *142:8 *142:24 43.7698 
3 *142:24 *142:32 31.1858 
4 *142:32 *16012:A 40.9682 
5 *142:24 *16013:C 20 
6 *142:8 *16015:D 20 
*END

*D_NET *143 0.000492665
*CONN
*I *16012:B I *D sg13cmos5l_xor2_1
*I *16011:X O *D sg13cmos5l_and2_1
*CAP
1 *16012:B 0.000222376
2 *16011:X 0.000222376
3 *16012:B *195:8 4.79124e-05
4 *16011:A *16012:B 0
5 *16012:A *16012:B 0
6 *134:26 *16012:B 0
7 *139:10 *16012:B 0
*RES
1 *16011:X *16012:B 42.1786 
*END

*D_NET *144 0.000387408
*CONN
*I *16017:A2 I *D sg13cmos5l_o21ai_1
*I *16013:X O *D sg13cmos5l_or3_1
*CAP
1 *16017:A2 0.00018623
2 *16013:X 0.00018623
3 *16017:A2 *16017:B1 1.49483e-05
4 *126:46 *16017:A2 0
*RES
1 *16013:X *16017:A2 41.751 
*END

*D_NET *145 0.00214057
*CONN
*I *16016:A I *D sg13cmos5l_nor2_1
*I *16014:Y O *D sg13cmos5l_o21ai_1
*CAP
1 *16016:A 0
2 *16014:Y 0.000949175
3 *145:10 0.000949175
4 *16011:A *145:10 0
5 *16014:B1 *145:10 0.00024222
*RES
1 *16014:Y *145:10 49.476 
2 *145:10 *16016:A 40 
*END

*D_NET *146 0.000829143
*CONN
*I *16016:B I *D sg13cmos5l_nor2_1
*I *16015:Y O *D sg13cmos5l_nor4_1
*CAP
1 *16016:B 0.000293415
2 *16015:Y 0.000293415
3 *16016:B *16017:B1 0
4 *16016:B *148:12 0
5 *126:46 *16016:B 0
6 *142:8 *16016:B 0.000242313
7 *142:24 *16016:B 0
*RES
1 *16015:Y *16016:B 43.4505 
*END

*D_NET *147 0.000535555
*CONN
*I *16017:B1 I *D sg13cmos5l_o21ai_1
*I *16016:Y O *D sg13cmos5l_nor2_1
*CAP
1 *16017:B1 0.000260303
2 *16016:Y 0.000260303
3 *16017:B1 *148:12 0
4 *16016:B *16017:B1 0
5 *16017:A2 *16017:B1 1.49483e-05
6 *142:8 *16017:B1 0
7 *142:24 *16017:B1 0
*RES
1 *16016:Y *16017:B1 42.6677 
*END

*D_NET *148 0.0111688
*CONN
*I *16042:A1 I *D sg13cmos5l_a21o_1
*I *16031:A1 I *D sg13cmos5l_a21oi_1
*I *16019:B_N I *D sg13cmos5l_nor2b_1
*I *16020:A I *D sg13cmos5l_xnor2_1
*I *16017:Y O *D sg13cmos5l_o21ai_1
*CAP
1 *16042:A1 0
2 *16031:A1 0
3 *16019:B_N 0.000217992
4 *16020:A 0.000213277
5 *16017:Y 0.000880675
6 *148:53 0.0014554
7 *148:40 0.00110231
8 *148:18 0.000710386
9 *148:14 0.00210605
10 *148:12 0.0030607
11 *16019:B_N *16020:B 0
12 *16019:B_N *149:14 0
13 *16019:B_N *183:6 0
14 *16020:A *16020:B 0.000339853
15 *16020:A *149:14 0
16 *16020:A *183:6 0
17 *148:14 *159:12 0
18 *148:18 *159:12 0
19 *148:40 *16030:A 0
20 *148:40 *183:6 0
21 *148:53 *16000:A 0.000306112
22 *148:53 *16000:B 0
23 *148:53 *16009:B 0
24 *148:53 *16010:B 0
25 *148:53 *159:12 0
26 *148:53 *178:46 0
27 *16011:A *148:12 0
28 *16016:B *148:12 0
29 *16017:B1 *148:12 0
30 *16039:A *148:53 0
31 *16039:B *148:53 0
32 *16042:A2 *148:53 0
33 *90:10 *148:40 0
34 *134:8 *148:53 0.000209681
35 *142:8 *148:12 0
36 *142:8 *148:53 0.000566365
*RES
1 *16017:Y *148:12 49.0246 
2 *148:12 *148:14 9.2494 
3 *148:14 *148:18 23.3166 
4 *148:18 *16020:A 22.6162 
5 *148:18 *16019:B_N 22.1836 
6 *148:14 *148:40 31.7832 
7 *148:40 *16031:A1 20 
8 *148:12 *148:53 36.6242 
9 *148:53 *16042:A1 20 
*END

*D_NET *149 0.00254064
*CONN
*I *16030:A I *D sg13cmos5l_nor2b_1
*I *16019:A I *D sg13cmos5l_nor2b_1
*I *16020:B I *D sg13cmos5l_xnor2_1
*I *16018:Y O *D sg13cmos5l_xnor2_1
*CAP
1 *16030:A 0.000434247
2 *16019:A 0
3 *16020:B 0.000356009
4 *16018:Y 0.000112883
5 *149:14 0.000529356
6 *149:8 0.000720478
7 *16030:A *159:12 0
8 *16030:A *160:8 0
9 *16030:A *183:6 0
10 *149:8 *159:12 0
11 *149:8 *160:8 0
12 *149:14 *16023:B1 4.7813e-05
13 *149:14 *183:6 0
14 *16019:B_N *16020:B 0
15 *16019:B_N *149:14 0
16 *16020:A *16020:B 0.000339853
17 *16020:A *149:14 0
18 *148:40 *16030:A 0
*RES
1 *16018:Y *149:8 41.339 
2 *149:8 *149:14 21.9673 
3 *149:14 *16020:B 23.9964 
4 *149:14 *16019:A 20 
5 *149:8 *16030:A 44.3157 
*END

*D_NET *150 0.000975277
*CONN
*I *16023:B1 I *D sg13cmos5l_a21oi_1
*I *16019:Y O *D sg13cmos5l_nor2b_1
*CAP
1 *16023:B1 0.000463732
2 *16019:Y 0.000463732
3 *16023:B1 *16018:A 0
4 *149:14 *16023:B1 4.7813e-05
*RES
1 *16019:Y *16023:B1 44.6453 
*END

*D_NET *151 0.00040447
*CONN
*I *16029:A I *D sg13cmos5l_nor2_1
*I *16021:Y O *D sg13cmos5l_nor2_1
*CAP
1 *16029:A 5.70088e-05
2 *16021:Y 0.000145226
3 *151:8 0.000202235
4 *16029:A *180:30 0
5 *151:8 *166:8 0
6 *88:10 *151:8 0
*RES
1 *16021:Y *151:8 41.339 
2 *151:8 *16029:A 40.5356 
*END

*D_NET *152 0.00525115
*CONN
*I *16030:B_N I *D sg13cmos5l_nor2b_1
*I *16024:A I *D sg13cmos5l_xnor2_1
*I *16022:X O *D sg13cmos5l_xor2_1
*CAP
1 *16030:B_N 0.000445881
2 *16024:A 0.000363088
3 *16022:X 0.000356313
4 *152:10 0.00116528
5 *16024:A *16024:B 0.00037214
6 *16024:A *182:6 0
7 *16024:A *184:6 0
8 *16030:B_N *176:20 0.00151612
9 *16030:B_N *178:16 0
10 *152:10 *16022:B 0
11 *152:10 *176:20 0.00103232
12 *152:10 *178:16 0
13 *152:10 *186:14 0
*RES
1 *16022:X *152:10 45.1191 
2 *152:10 *16024:A 43.9964 
3 *152:10 *16030:B_N 47.0246 
*END

*D_NET *153 0.00179374
*CONN
*I *16024:B I *D sg13cmos5l_xnor2_1
*I *16023:Y O *D sg13cmos5l_a21oi_1
*CAP
1 *16024:B 0.00022113
2 *16023:Y 0.000148466
3 *153:8 0.000369596
4 *16024:B *184:6 0
5 *153:8 *160:8 0.000554164
6 *153:8 *161:31 0.000128248
7 *16024:A *16024:B 0.00037214
*RES
1 *16023:Y *153:8 42.575 
2 *153:8 *16024:B 42.4823 
*END

*D_NET *154 0.00313541
*CONN
*I *16040:A1 I *D sg13cmos5l_o21ai_1
*I *16036:B1 I *D sg13cmos5l_o21ai_1
*I *16025:Y O *D sg13cmos5l_nand2_1
*CAP
1 *16040:A1 0
2 *16036:B1 0.00016296
3 *16025:Y 0
4 *154:25 0.000409168
5 *154:10 0.00156405
6 *154:6 0.000991921
7 *154:10 *199:8 0
8 *16032:B *154:10 0
9 *16036:A2 *16036:B1 7.31538e-06
10 *16037:A *16036:B1 0
11 *16037:A *154:25 0
12 *16038:A *154:10 0
13 *16038:A *154:25 0
14 *87:8 *154:10 0
15 *93:12 *154:10 0
16 *93:12 *154:25 0
*RES
1 *16025:Y *154:6 40 
2 *154:6 *154:10 31.9686 
3 *154:10 *16036:B1 21.6171 
4 *154:10 *154:25 45.0573 
5 *154:25 *16040:A1 20 
*END

*D_NET *155 0.0110553
*CONN
*I *15975:B I *D sg13cmos5l_nand2_1
*I *15976:B I *D sg13cmos5l_xor2_1
*I *16092:X O *D sg13cmos5l_buf_1
*CAP
1 *15975:B 0.00014466
2 *15976:B 0.000183544
3 *16092:X 0
4 *155:10 0.000732748
5 *155:6 0.00318421
6 *155:4 0.00277966
7 *15976:B *15976:A 0
8 *15976:B *181:12 4.63397e-05
9 *15976:B *193:8 0
10 *155:6 *173:18 0
11 *155:6 *201:8 0.00276955
12 *155:6 *202:8 0.00121456
13 uio_oe[10] *155:6 0
14 uio_oe[11] *155:6 0
15 uio_oe[12] *155:6 0
16 uio_oe[3] *155:6 0
17 uio_oe[5] *155:6 0
18 uio_oe[6] *155:6 0
19 uio_oe[7] *155:6 0
20 uio_oe[8] *155:6 0
21 uio_oe[9] *155:6 0
*RES
1 *16092:X *155:4 20 
2 *155:4 *155:6 30.8176 
3 *155:6 *155:10 24.7998 
4 *155:10 *15976:B 41.8334 
5 *155:10 *15975:B 41.5862 
*END

*D_NET *156 0.0121492
*CONN
*I *15986:B I *D sg13cmos5l_xor2_1
*I *15991:A2 I *D sg13cmos5l_a221oi_1
*I *15985:B I *D sg13cmos5l_or2_1
*I *16093:X O *D sg13cmos5l_buf_1
*CAP
1 *15986:B 0
2 *15991:A2 0
3 *15985:B 0
4 *16093:X 0.00140067
5 *156:37 0.000169641
6 *156:27 0.000461788
7 *156:14 0.000292147
8 *156:12 0.00175932
9 *156:8 0.00315999
10 *156:8 *163:20 0.00251091
11 *156:8 *173:18 0
12 *156:8 *201:8 0.00192751
13 *156:8 *202:8 0
14 *156:12 *171:18 0
15 *156:12 *173:22 0
16 *156:27 *15985:A 8.03692e-05
17 *156:27 *15986:A 0
18 *156:27 *173:24 0
19 *156:27 *183:6 0
20 *156:27 *202:32 0
21 *156:37 *173:37 0.000306454
22 *16093:A *156:8 0
23 *16123:A *156:8 0
24 *121:10 *156:27 8.03692e-05
25 *126:16 *156:12 0
*RES
1 *16093:X *156:8 37.3555 
2 *156:8 *156:12 39.1374 
3 *156:12 *156:14 20 
4 *156:14 *15985:B 20 
5 *156:14 *156:27 3.0694 
6 *156:27 *156:37 42.0265 
7 *156:37 *15991:A2 20 
8 *156:27 *15986:B 20 
*END

*D_NET *157 0.00893528
*CONN
*I *15992:B I *D sg13cmos5l_xor2_1
*I *15998:A2 I *D sg13cmos5l_a21o_1
*I *16002:A2 I *D sg13cmos5l_a22oi_1
*I *16094:X O *D sg13cmos5l_buf_1
*CAP
1 *15992:B 0
2 *15998:A2 5.3347e-05
3 *16002:A2 3.13338e-05
4 *16094:X 0.000389771
5 *157:38 5.32712e-05
6 *157:25 0.000920006
7 *157:10 0.00123449
8 *15998:A2 *15998:A1 1.54556e-05
9 *15998:A2 *184:6 8.16736e-05
10 *16002:A2 *16002:B2 4.77425e-05
11 *157:10 *15995:B 5.30319e-05
12 *157:10 *158:12 0.00087085
13 *157:10 *158:21 0.000375939
14 *157:10 *173:18 0
15 *157:10 *174:16 0.000929257
16 *157:25 *15995:B 0.000234122
17 *157:25 *15998:A1 6.47053e-05
18 *157:25 *174:24 0.000760738
19 *157:25 *184:6 0.000890236
20 *15998:B1 *15998:A2 0
21 *16093:A *157:10 0
22 *16094:A *157:10 0
23 *129:19 *157:38 0.000288173
24 *130:18 *157:38 0.000288588
25 *135:12 *157:10 0.000129029
26 *135:12 *157:25 0.00122351
*RES
1 *16094:X *157:10 46.9113 
2 *157:10 *16002:A2 40.3193 
3 *157:10 *157:25 31.7317 
4 *157:25 *15998:A2 20.5459 
5 *157:25 *157:38 41.339 
6 *157:38 *15992:B 20 
*END

*D_NET *158 0.0040052
*CONN
*I *15995:B I *D sg13cmos5l_nor2_1
*I *16002:B2 I *D sg13cmos5l_a22oi_1
*I *15996:B I *D sg13cmos5l_nand2_1
*I *16095:X O *D sg13cmos5l_buf_1
*CAP
1 *15995:B 7.05636e-05
2 *16002:B2 3.34444e-05
3 *15996:B 0
4 *16095:X 0.000523805
5 *158:21 0.000174376
6 *158:12 0.000594174
7 *15995:B *15995:A 0.00018144
8 *158:12 *163:14 0
9 *158:12 *163:20 0
10 *158:12 *173:18 0
11 *158:12 *175:20 0.000448461
12 *158:21 *15995:A 0.000107001
13 *158:21 *175:20 0.000128528
14 *158:21 *175:31 0.000161716
15 *16002:A2 *16002:B2 4.77425e-05
16 *16094:A *158:12 0
17 *16095:A *158:12 0
18 *157:10 *15995:B 5.30319e-05
19 *157:10 *158:12 0.00087085
20 *157:10 *158:21 0.000375939
21 *157:25 *15995:B 0.000234122
*RES
1 *16095:X *158:12 46.7671 
2 *158:12 *15996:B 40 
3 *158:12 *158:21 1.8334 
4 *158:21 *16002:B2 40.3193 
5 *158:21 *15995:B 41.339 
*END

*D_NET *159 0.00547949
*CONN
*I *16000:B I *D sg13cmos5l_nand2_1
*I *16001:B I *D sg13cmos5l_xnor2_1
*I *16096:X O *D sg13cmos5l_buf_1
*CAP
1 *16000:B 0.000216459
2 *16001:B 0
3 *16096:X 0
4 *159:12 0.0025699
5 *159:6 0.00235345
6 *16000:B *16000:A 0
7 *16000:B *16001:A 0.000324227
8 *159:12 *16001:A 1.54556e-05
9 *16030:A *159:12 0
10 *148:14 *159:12 0
11 *148:18 *159:12 0
12 *148:53 *16000:B 0
13 *148:53 *159:12 0
14 *149:8 *159:12 0
*RES
1 *16096:X *159:6 40 
2 *159:6 *159:12 48.325 
3 *159:12 *16001:B 20 
4 *159:12 *16000:B 22.6162 
*END

*D_NET *160 0.0126415
*CONN
*I *16008:B I *D sg13cmos5l_nor2_1
*I *16009:B I *D sg13cmos5l_nand2_1
*I *16010:B I *D sg13cmos5l_xnor2_1
*I *16097:X O *D sg13cmos5l_buf_1
*CAP
1 *16008:B 0.000165065
2 *16009:B 0.000241127
3 *16010:B 4.89316e-05
4 *16097:X 0
5 *160:22 0.000406192
6 *160:8 0.00186094
7 *160:6 0.00181201
8 *16008:B *178:20 9.68259e-05
9 *16008:B *178:46 0.000176644
10 *16009:B *178:20 1.54008e-05
11 *16009:B *178:28 0
12 *16010:B *178:20 7.94532e-05
13 *160:8 *161:31 0
14 *160:8 *178:16 0.00663059
15 *16014:A2 *16008:B 0
16 *16030:A *160:8 0
17 *133:8 *160:8 0.000554119
18 *142:8 *16009:B 0
19 *148:53 *16009:B 0
20 *148:53 *16010:B 0
21 *149:8 *160:8 0
22 *153:8 *160:8 0.000554164
*RES
1 *16097:X *160:6 40 
2 *160:6 *160:8 30.7558 
3 *160:8 *16010:B 40.5356 
4 *16010:B *160:22 20 
5 *160:22 *16009:B 22.6162 
6 *160:22 *16008:B 21.8334 
*END

*D_NET *161 0.00514143
*CONN
*I *16023:A2 I *D sg13cmos5l_a21oi_1
*I *16018:B I *D sg13cmos5l_xnor2_1
*I *16028:A2 I *D sg13cmos5l_a22oi_1
*I *16098:X O *D sg13cmos5l_buf_1
*CAP
1 *16023:A2 0
2 *16018:B 0
3 *16028:A2 0.000212418
4 *16098:X 0.000380217
5 *161:31 0.000173108
6 *161:25 0.0011595
7 *161:8 0.00157903
8 *16028:A2 *16022:B 0
9 *16028:A2 *162:12 0
10 *16028:A2 *186:14 0
11 *161:8 *176:20 0.00113819
12 *161:8 *179:16 0
13 *161:8 *179:29 0
14 *161:25 *16023:A1 0.000112018
15 *161:25 *176:20 0
16 *161:25 *179:29 0.000258701
17 *161:25 *184:6 0
18 *153:8 *161:31 0.000128248
19 *160:8 *161:31 0
*RES
1 *16098:X *161:8 45.5414 
2 *161:8 *16028:A2 41.9673 
3 *161:8 *161:25 29.5069 
4 *161:25 *161:31 41.8334 
5 *161:31 *16018:B 20 
6 *161:25 *16023:A2 20 
*END

*D_NET *162 0.00200755
*CONN
*I *16021:B I *D sg13cmos5l_nor2_1
*I *16028:B2 I *D sg13cmos5l_a22oi_1
*I *16022:B I *D sg13cmos5l_xor2_1
*I *16099:X O *D sg13cmos5l_buf_1
*CAP
1 *16021:B 4.32265e-05
2 *16028:B2 0
3 *16022:B 0.000217879
4 *16099:X 0.000474096
5 *162:12 0.000376017
6 *162:10 0.000201365
7 *162:8 0.000474096
8 *16021:B *186:14 0
9 *16022:B *186:14 0
10 *162:8 *179:16 0
11 *162:8 *179:29 0
12 *162:8 *180:26 0
13 *162:12 *180:32 0
14 *162:12 *186:14 0
15 *16028:A2 *16022:B 0
16 *16028:A2 *162:12 0
17 *88:10 *16021:B 6.36001e-05
18 *88:10 *162:8 0
19 *88:10 *162:12 0.000157274
20 *152:10 *16022:B 0
*RES
1 *16099:X *162:8 45.047 
2 *162:8 *162:10 20 
3 *162:10 *162:12 1.6171 
4 *162:12 *16022:B 22.0497 
5 *162:12 *16028:B2 20 
6 *162:10 *16021:B 20.5356 
*END

*D_NET *163 0.0254056
*CONN
*I *15975:A I *D sg13cmos5l_nand2_1
*I *15976:A I *D sg13cmos5l_xor2_1
*I *16100:X O *D sg13cmos5l_buf_1
*CAP
1 *15975:A 0
2 *15976:A 0.000256145
3 *16100:X 0.00221864
4 *163:24 0.00185305
5 *163:20 0.00383205
6 *163:14 0.00445379
7 *15976:A *186:14 0.00027466
8 *163:14 *172:10 1.54556e-05
9 *163:14 *172:14 0
10 *163:14 *173:14 0
11 *163:14 *173:18 0
12 *163:14 *176:14 0
13 *163:14 *188:10 0.000209856
14 *163:20 *171:18 0.00129969
15 *163:20 *172:14 0.0029653
16 *163:20 *173:18 0
17 *163:20 *173:22 0.00130997
18 *163:20 *201:8 0
19 *163:24 *186:14 0.00286734
20 *15976:B *15976:A 0
21 *16093:A *163:20 0
22 *16095:A *163:20 0
23 *16096:A *163:14 0
24 *16099:A *163:14 0.000307057
25 *16103:A *163:14 0.000209829
26 *16114:A *163:14 0.000242138
27 *16118:A *163:14 0.000177493
28 *16119:A *163:14 0.00017703
29 *16120:A *163:14 0.000112548
30 *16121:A *163:14 0.000112651
31 *156:8 *163:20 0.00251091
32 *158:12 *163:14 0
33 *158:12 *163:20 0
*RES
1 *16100:X *163:14 42.9484 
2 *163:14 *163:20 49.7155 
3 *163:20 *163:24 39.1374 
4 *163:24 *15976:A 22.9252 
5 *163:24 *15975:A 20 
*END

*D_NET *164 0.0100021
*CONN
*I *16025:A I *D sg13cmos5l_nand2_1
*I *16026:A I *D sg13cmos5l_xor2_1
*I *16101:X O *D sg13cmos5l_buf_1
*CAP
1 *16025:A 0.000107954
2 *16026:A 0
3 *16101:X 0.000878122
4 *164:28 0.000255909
5 *164:20 0.000458598
6 *164:16 0.00178049
7 *164:10 0.00256387
8 *16025:A *199:8 0
9 *164:10 *167:12 0
10 *164:10 *168:12 0.0014092
11 *164:10 *176:10 0
12 *164:10 *176:14 0
13 *164:10 *180:14 0.000219129
14 *164:16 *168:16 0
15 *164:16 *180:26 0.00173187
16 *164:16 *188:26 8.01938e-05
17 *164:16 *198:20 0
18 *164:16 *198:31 0
19 *164:16 *200:20 0
20 *164:20 *198:8 0
21 *164:20 *199:8 0
22 *164:28 *177:16 0.000274594
23 *164:28 *180:26 0
24 *164:28 *198:20 0.00024211
25 *16112:A *164:10 0
26 *16113:A *164:10 0
*RES
1 *16101:X *164:10 49.7541 
2 *164:10 *164:16 38.0353 
3 *164:16 *164:20 20.8446 
4 *164:20 *164:28 43.1106 
5 *164:28 *16026:A 40 
6 *164:20 *16025:A 41.0918 
*END

*D_NET *165 0.0103395
*CONN
*I *16034:A I *D sg13cmos5l_nand2_1
*I *16033:A I *D sg13cmos5l_nor2_1
*I *16102:X O *D sg13cmos5l_buf_1
*CAP
1 *16034:A 0.00031297
2 *16033:A 9.6886e-05
3 *16102:X 0.0023442
4 *165:14 0.000636124
5 *165:10 0.00257047
6 *16033:A *177:16 0
7 *16033:A *198:20 0.000176708
8 *16034:A *186:12 0
9 *16034:A *198:20 0
10 *165:10 *168:12 0.00037093
11 *165:10 *175:14 0.00112677
12 *165:10 *179:12 0.00270442
13 *165:10 *200:20 0
14 *165:14 *199:8 0
15 *92:12 *16034:A 0
*RES
1 *16102:X *165:10 47.2847 
2 *165:10 *165:14 22.3278 
3 *165:14 *16033:A 41.1845 
4 *165:14 *16034:A 43.2183 
*END

*D_NET *166 0.00234719
*CONN
*I *16025:B I *D sg13cmos5l_nand2_1
*I *16026:B I *D sg13cmos5l_xor2_1
*I *16103:X O *D sg13cmos5l_buf_1
*CAP
1 *16025:B 0.000207127
2 *16026:B 0
3 *16103:X 0.00046398
4 *166:12 0.000709617
5 *166:8 0.00096647
6 *16025:B *177:16 0
7 *16025:B *186:12 0
8 *16025:B *186:14 0
9 *166:8 *177:8 0
10 *166:8 *180:26 0
11 *166:12 *177:16 0
12 *166:12 *180:26 0
13 *166:12 *186:14 0
14 *86:10 *166:12 0
15 *89:8 *166:12 0
16 *151:8 *166:8 0
*RES
1 *16103:X *166:8 45.047 
2 *166:8 *166:12 25.2942 
3 *166:12 *16026:B 20 
4 *166:12 *16025:B 21.8964 
*END

*D_NET *167 0.0149177
*CONN
*I *16051:A I *D sg13cmos5l_and3_1
*I *16043:A I *D sg13cmos5l_xnor2_1
*I *16046:A1 I *D sg13cmos5l_a21oi_1
*I *16104:X O *D sg13cmos5l_buf_1
*CAP
1 *16051:A 0.000719271
2 *16043:A 2.89208e-05
3 *16046:A1 2.58588e-05
4 *16104:X 0.000123892
5 *167:27 0.00119654
6 *167:16 0.000827134
7 *167:12 0.00225993
8 *167:8 0.0020309
9 *16043:A *16043:B 4.77866e-05
10 *16043:A *16051:B 0
11 *16046:A1 *188:26 4.77425e-05
12 *16046:A1 *198:20 4.77866e-05
13 *16051:A *16051:B 0.00132935
14 *167:12 *168:12 0
15 *167:12 *173:14 0.000274721
16 *167:12 *174:12 0.000566651
17 *167:12 *176:14 0
18 *167:12 *178:12 0
19 *167:12 *180:14 0.000988371
20 *167:16 *173:8 0
21 *167:16 *180:20 0
22 *167:16 *188:20 0.000499383
23 *167:16 *188:26 7.51285e-05
24 *167:27 *16051:B 7.52158e-05
25 *167:27 *188:26 0.00207918
26 *16052:C1 *16051:A 0
27 *16102:A *167:12 0
28 *16104:A *167:8 0
29 *16104:A *167:12 0
30 *16105:A *167:8 0
31 *16115:A *167:12 0
32 *16116:A *167:12 0
33 *102:8 *167:27 0.00167396
34 *108:10 *16051:A 0
35 *164:10 *167:12 0
*RES
1 *16104:X *167:8 41.339 
2 *167:8 *167:12 41.3004 
3 *167:12 *167:16 24.5526 
4 *167:16 *16046:A1 40.3193 
5 *167:16 *167:27 9.991 
6 *167:27 *16043:A 40.3193 
7 *167:27 *16051:A 49.2391 
*END

*D_NET *168 0.0100363
*CONN
*I *16047:A I *D sg13cmos5l_or2_1
*I *16052:A1 I *D sg13cmos5l_a221oi_1
*I *16048:A I *D sg13cmos5l_xor2_1
*I *16105:X O *D sg13cmos5l_buf_1
*CAP
1 *16047:A 9.31154e-05
2 *16052:A1 0.000185496
3 *16048:A 0
4 *16105:X 0.0018382
5 *168:25 0.00119405
6 *168:16 0.00125245
7 *168:12 0.0021752
8 *16047:A *16047:B 0
9 *16052:A1 *16052:A2 0.000274583
10 *168:12 *169:12 0
11 *168:12 *175:14 0.000242313
12 *168:16 *180:20 0
13 *168:25 *198:31 0
14 *16052:B1 *16052:A1 0.000339267
15 *16102:A *168:12 0.000307051
16 *16104:A *168:12 0.000209593
17 *16105:A *168:12 0.000144833
18 *16112:A *168:12 0
19 *164:10 *168:12 0.0014092
20 *164:16 *168:16 0
21 *165:10 *168:12 0.00037093
22 *167:12 *168:12 0
*RES
1 *16105:X *168:12 40.4352 
2 *168:12 *168:16 23.811 
3 *168:16 *16048:A 40 
4 *168:16 *168:25 8.5078 
5 *168:25 *16052:A1 42.266 
6 *168:25 *16047:A 40.8446 
*END

*D_NET *169 0.00544188
*CONN
*I *16054:A I *D sg13cmos5l_nor2_1
*I *16055:A I *D sg13cmos5l_xor2_1
*I *16053:A I *D sg13cmos5l_nand2_1
*I *16106:X O *D sg13cmos5l_buf_1
*CAP
1 *16054:A 0
2 *16055:A 0
3 *16053:A 0
4 *16106:X 0.000628723
5 *169:50 0.000344229
6 *169:32 0.000420068
7 *169:20 0.000449711
8 *169:18 0.00109302
9 *169:12 0.00134787
10 *169:18 *187:10 0
11 *169:18 *200:20 0.000299078
12 *169:20 *187:10 0
13 *169:20 *200:20 0
14 *169:32 *187:10 0.000177399
15 *169:32 *200:20 0
16 *169:50 *16054:B 0.00044777
17 *169:50 *16055:B 0.000234024
18 *16056:B *169:32 0
19 *16059:A *169:18 0
20 *16059:B *169:18 0
21 *16105:A *169:12 0
22 *16106:A *169:12 0
23 *108:20 *169:32 0
24 *168:12 *169:12 0
*RES
1 *16106:X *169:12 46.3963 
2 *169:12 *169:18 28.1473 
3 *169:18 *169:20 0.3193 
4 *169:20 *169:32 44.3672 
5 *169:32 *16053:A 20 
6 *169:20 *16055:A 20 
7 *169:18 *169:50 44.6247 
8 *169:50 *16054:A 20 
*END

*D_NET *170 0.0022339
*CONN
*I *16058:A I *D sg13cmos5l_xnor2_1
*I *16107:X O *D sg13cmos5l_buf_1
*CAP
1 *16058:A 0.00052766
2 *16107:X 0.000581815
3 *170:10 0.00110948
4 *16058:A *200:20 1.49483e-05
5 *16106:A *170:10 0
6 *16107:A *170:10 0
*RES
1 *16107:X *170:10 46.6641 
2 *170:10 *16058:A 45.9431 
*END

*D_NET *171 0.0238612
*CONN
*I *15978:A I *D sg13cmos5l_nor2_1
*I *15977:A I *D sg13cmos5l_nand2_1
*I *15979:A I *D sg13cmos5l_xor2_1
*I *16108:X O *D sg13cmos5l_buf_1
*CAP
1 *15978:A 0
2 *15977:A 0
3 *15979:A 0.00016781
4 *16108:X 0.000133887
5 *171:39 0.000180099
6 *171:22 0.000385742
7 *171:20 0.000638354
8 *171:18 0.00131695
9 *171:12 0.00493455
10 *171:10 0.00421812
11 *171:8 0.000133887
12 *15979:A *186:14 0.000209856
13 *15979:A *187:20 1.54008e-05
14 *15979:A *187:22 0
15 *171:12 *173:14 0.00315251
16 *171:12 *173:18 0
17 *171:12 *174:12 0.00436193
18 *171:18 *173:22 0
19 *171:20 *186:14 0.00113372
20 *171:20 *187:20 0.00114918
21 *171:22 *186:14 6.49135e-05
22 *171:22 *187:20 8.02269e-05
23 *171:39 *197:12 0
24 *171:39 *201:16 0
25 *171:39 *201:18 0
26 uio_oe[11] *171:18 0
27 uio_oe[12] *171:18 0
28 *16100:A *171:8 0
29 *16108:A *171:8 0
30 *115:10 *171:39 4.77425e-05
31 *116:10 *171:39 0.000236596
32 *156:12 *171:18 0
33 *163:20 *171:18 0.00129969
*RES
1 *16108:X *171:8 41.339 
2 *171:8 *171:10 20 
3 *171:10 *171:12 46.6075 
4 *171:12 *171:18 48.5078 
5 *171:18 *171:20 7.6735 
6 *171:20 *171:22 0.5356 
7 *171:22 *15979:A 21.751 
8 *171:22 *171:39 42.1218 
9 *171:39 *15977:A 20 
10 *171:20 *15978:A 20 
*END

*D_NET *172 0.0261219
*CONN
*I *15990:A I *D sg13cmos5l_and3_1
*I *15982:A I *D sg13cmos5l_xnor2_1
*I *15987:A1 I *D sg13cmos5l_a21oi_1
*I *16109:X O *D sg13cmos5l_buf_1
*CAP
1 *15990:A 0
2 *15982:A 0.000212817
3 *15987:A1 9.3907e-05
4 *16109:X 0.0024778
5 *172:24 0.00123884
6 *172:22 0.00268518
7 *172:14 0.0035699
8 *172:10 0.00429463
9 *15982:A *202:53 8.00842e-05
10 *15987:A1 *202:53 0
11 *172:10 *175:14 0
12 *172:10 *175:20 0
13 *172:10 *176:14 0
14 *172:10 *188:10 0
15 *172:10 *188:14 0.0017006
16 *172:14 *175:20 0.00112678
17 *172:22 *202:12 0.00436881
18 *172:22 *202:16 0
19 *172:22 *202:32 0
20 *172:24 *202:32 0.00114674
21 *15984:A *15987:A1 0
22 *15984:A *172:24 0
23 *15984:B *15987:A1 0
24 *15988:A *15982:A 0.000145009
25 *15988:A *172:24 0
26 *15988:B *15982:A 0
27 *15991:C1 *172:22 0
28 *15991:C1 *172:24 0
29 *15991:B1 *172:24 0
30 *16109:A *172:10 0
31 *126:10 *172:22 0
32 *130:10 *172:14 0
33 *163:14 *172:10 1.54556e-05
34 *163:14 *172:14 0
35 *163:20 *172:14 0.0029653
*RES
1 *16109:X *172:10 46.1105 
2 *172:10 *172:14 42.0111 
3 *172:14 *172:22 45.2144 
4 *172:22 *172:24 10.4854 
5 *172:24 *15987:A1 20.9682 
6 *172:24 *15982:A 22.8016 
7 *172:22 *15990:A 20 
*END

*D_NET *173 0.0253563
*CONN
*I *15985:A I *D sg13cmos5l_or2_1
*I *15991:A1 I *D sg13cmos5l_a221oi_1
*I *15986:A I *D sg13cmos5l_xor2_1
*I *16110:X O *D sg13cmos5l_buf_1
*CAP
1 *15985:A 6.16253e-05
2 *15991:A1 0
3 *15986:A 2.77263e-05
4 *16110:X 0.00012251
5 *173:37 0.000139838
6 *173:24 0.000304708
7 *173:22 0.00191704
8 *173:18 0.00447098
9 *173:14 0.00497524
10 *173:8 0.00234504
11 *15985:A *183:6 0
12 *173:8 *180:20 0
13 *173:14 *174:12 0
14 *173:14 *176:14 0.00368051
15 *173:18 *202:8 0
16 *173:24 *183:6 0
17 uio_oe[11] *173:18 4.78524e-05
18 uio_oe[11] *173:22 7.52149e-05
19 uio_oe[12] *173:18 0.00021012
20 uio_oe[14] *173:18 0.00014514
21 uio_oe[15] *173:18 8.02267e-05
22 *16092:A *173:18 0.00030749
23 *16093:A *173:18 0.000177433
24 *16094:A *173:18 0.000177663
25 *16095:A *173:18 0.000112717
26 *16096:A *173:18 0.000112684
27 *16110:A *173:8 0
28 *16122:A *173:18 0.000210196
29 *16123:A *173:18 0.000242511
30 *121:10 *173:37 0
31 *122:8 *173:37 0.000287758
32 *155:6 *173:18 0
33 *156:8 *173:18 0
34 *156:12 *173:22 0
35 *156:27 *15985:A 8.03692e-05
36 *156:27 *15986:A 0
37 *156:27 *173:24 0
38 *156:37 *173:37 0.000306454
39 *157:10 *173:18 0
40 *158:12 *173:18 0
41 *163:14 *173:14 0
42 *163:14 *173:18 0
43 *163:20 *173:18 0
44 *163:20 *173:22 0.00130997
45 *167:12 *173:14 0.000274721
46 *167:16 *173:8 0
47 *171:12 *173:14 0.00315251
48 *171:12 *173:18 0
49 *171:18 *173:22 0
*RES
1 *16110:X *173:8 41.0918 
2 *173:8 *173:14 47.2126 
3 *173:14 *173:18 46.1208 
4 *173:18 *173:22 40.3734 
5 *173:22 *173:24 1.1845 
6 *173:24 *15986:A 20.3502 
7 *173:24 *173:37 42.3278 
8 *173:37 *15991:A1 20 
9 *173:22 *15985:A 20.7519 
*END

*D_NET *174 0.0218383
*CONN
*I *16002:A1 I *D sg13cmos5l_a22oi_1
*I *15992:A I *D sg13cmos5l_xor2_1
*I *15998:A1 I *D sg13cmos5l_a21o_1
*I *16111:X O *D sg13cmos5l_buf_1
*CAP
1 *16002:A1 5.47732e-05
2 *15992:A 0
3 *15998:A1 4.79429e-05
4 *16111:X 0.000150335
5 *174:39 0.000108489
6 *174:24 0.00107081
7 *174:16 0.00137072
8 *174:12 0.00338241
9 *174:10 0.00298084
10 *174:8 0.000150335
11 *15998:A1 *197:8 0
12 *16002:A1 *16002:B1 4.77425e-05
13 *174:8 *180:20 0
14 *174:12 *178:12 0.00419976
15 *174:24 *197:8 0
16 *174:39 *184:6 8.00842e-05
17 *15998:A2 *15998:A1 1.54556e-05
18 *15998:B1 *15998:A1 1.54556e-05
19 *16093:A *174:16 0
20 *129:19 *174:39 0.000181192
21 *135:12 *174:24 0.00129868
22 *157:10 *174:16 0.000929257
23 *157:25 *15998:A1 6.47053e-05
24 *157:25 *174:24 0.000760738
25 *167:12 *174:12 0.000566651
26 *171:12 *174:12 0.00436193
27 *173:14 *174:12 0
*RES
1 *16111:X *174:8 41.5862 
2 *174:8 *174:10 20 
3 *174:10 *174:12 36.874 
4 *174:12 *174:16 25.7886 
5 *174:16 *174:24 31.9274 
6 *174:24 *15998:A1 20.5356 
7 *174:24 *174:39 41.3802 
8 *174:39 *15992:A 20 
9 *174:16 *16002:A1 40.5356 
*END

*D_NET *175 0.0147199
*CONN
*I *15995:A I *D sg13cmos5l_nor2_1
*I *16002:B1 I *D sg13cmos5l_a22oi_1
*I *15996:A I *D sg13cmos5l_nand2_1
*I *16112:X O *D sg13cmos5l_buf_1
*CAP
1 *15995:A 0.000111696
2 *16002:B1 4.50821e-05
3 *15996:A 2.69866e-05
4 *16112:X 0.0012445
5 *175:31 0.000211823
6 *175:20 0.00256979
7 *175:14 0.00373227
8 *175:14 *176:10 0
9 *175:14 *176:14 0
10 *175:14 *179:12 0
11 *175:14 *188:14 0.00111732
12 *175:20 *179:12 0.00208969
13 *175:20 *188:14 0
14 *15995:B *15995:A 0.00018144
15 *16002:A1 *16002:B1 4.77425e-05
16 *16109:A *175:14 0
17 *16110:A *175:14 0
18 *16111:A *175:14 0
19 *16112:A *175:14 0
20 *158:12 *175:20 0.000448461
21 *158:21 *15995:A 0.000107001
22 *158:21 *175:20 0.000128528
23 *158:21 *175:31 0.000161716
24 *165:10 *175:14 0.00112677
25 *168:12 *175:14 0.000242313
26 *172:10 *175:14 0
27 *172:10 *175:20 0
28 *172:14 *175:20 0.00112678
*RES
1 *16112:X *175:14 34.0463 
2 *175:14 *175:20 47.9851 
3 *175:20 *15996:A 40.3193 
4 *175:20 *175:31 0.8446 
5 *175:31 *16002:B1 40.5356 
6 *175:31 *15995:A 41.6583 
*END

*D_NET *176 0.0218955
*CONN
*I *16000:A I *D sg13cmos5l_nand2_1
*I *16001:A I *D sg13cmos5l_xnor2_1
*I *16113:X O *D sg13cmos5l_buf_1
*CAP
1 *16000:A 0.000205764
2 *16001:A 0.000354471
3 *16113:X 0.0001952
4 *176:20 0.00274788
5 *176:14 0.0046753
6 *176:10 0.00268286
7 *16000:A *178:16 0
8 *176:10 *180:14 0
9 *176:14 *180:14 0.000663907
10 *176:20 *178:16 0
11 *16000:B *16000:A 0
12 *16000:B *16001:A 0.000324227
13 *16030:B_N *176:20 0.00151612
14 *16098:A *176:20 0
15 *16099:A *176:14 0.000307397
16 *16103:A *176:14 0.000210169
17 *16109:A *176:14 0.000307266
18 *16110:A *176:14 0.000209846
19 *16111:A *176:14 0.000242314
20 *16112:A *176:14 0.00017763
21 *16113:A *176:10 7.94462e-05
22 *16114:A *176:14 0.000242478
23 *16118:A *176:14 0.000177663
24 *16119:A *176:14 0.00017763
25 *16120:A *176:14 0.000112684
26 *16121:A *176:14 0.000112651
27 *148:53 *16000:A 0.000306112
28 *152:10 *176:20 0.00103232
29 *159:12 *16001:A 1.54556e-05
30 *161:8 *176:20 0.00113819
31 *161:25 *176:20 0
32 *163:14 *176:14 0
33 *164:10 *176:10 0
34 *164:10 *176:14 0
35 *167:12 *176:14 0
36 *172:10 *176:14 0
37 *173:14 *176:14 0.00368051
38 *175:14 *176:10 0
39 *175:14 *176:14 0
*RES
1 *16113:X *176:10 22.1321 
2 *176:10 *176:14 49.3035 
3 *176:14 *176:20 28.7061 
4 *176:20 *16001:A 44.2127 
5 *176:20 *16000:A 43.1415 
*END

*D_NET *177 0.00257984
*CONN
*I *16033:B I *D sg13cmos5l_nor2_1
*I *16034:B I *D sg13cmos5l_nand2_1
*I *16114:X O *D sg13cmos5l_buf_1
*CAP
1 *16033:B 0
2 *16034:B 0
3 *16114:X 0.000341963
4 *177:22 4.14694e-05
5 *177:16 0.000746182
6 *177:8 0.00104668
7 *177:16 *180:26 0
8 *177:16 *186:12 0
9 *177:16 *198:20 0
10 *177:22 *199:8 0
11 *16025:B *177:16 0
12 *16033:A *177:16 0
13 *92:12 *177:22 0.000128951
14 *164:28 *177:16 0.000274594
15 *166:8 *177:8 0
16 *166:12 *177:16 0
*RES
1 *16114:X *177:8 43.811 
2 *177:8 *177:16 27.6941 
3 *177:16 *177:22 40.5974 
4 *177:22 *16034:B 20 
5 *177:16 *16033:B 20 
*END

*D_NET *178 0.0234882
*CONN
*I *16008:A I *D sg13cmos5l_nor2_1
*I *16010:A I *D sg13cmos5l_xnor2_1
*I *16009:A I *D sg13cmos5l_nand2_1
*I *16115:X O *D sg13cmos5l_buf_1
*CAP
1 *16008:A 0
2 *16010:A 0
3 *16009:A 0
4 *16115:X 0.000135321
5 *178:46 0.00018337
6 *178:28 0.000298989
7 *178:20 0.000366149
8 *178:18 0.00025053
9 *178:16 0.00219672
10 *178:14 0.00219672
11 *178:12 0.0028676
12 *178:10 0.0028676
13 *178:8 0.000135321
14 *178:16 *180:46 0
15 *16000:A *178:16 0
16 *16008:B *178:20 9.68259e-05
17 *16008:B *178:46 0.000176644
18 *16009:B *178:20 1.54008e-05
19 *16009:B *178:28 0
20 *16010:B *178:20 7.94532e-05
21 *16011:A *178:28 0.000268233
22 *16030:B_N *178:16 0
23 *16097:A *178:16 0
24 *16098:A *178:16 0
25 *16115:A *178:8 0.000287672
26 *16116:A *178:8 0
27 *133:8 *178:28 0.000235314
28 *133:8 *178:46 0
29 *148:53 *178:46 0
30 *152:10 *178:16 0
31 *160:8 *178:16 0.00663059
32 *167:12 *178:12 0
33 *174:12 *178:12 0.00419976
34 *176:20 *178:16 0
*RES
1 *16115:X *178:8 41.8334 
2 *178:8 *178:10 20 
3 *178:10 *178:12 33.8458 
4 *178:12 *178:14 20 
5 *178:14 *178:16 32.7334 
6 *178:16 *178:18 20 
7 *178:18 *178:20 0.7519 
8 *178:20 *178:28 43.3578 
9 *178:28 *16009:A 20 
10 *178:20 *16010:A 20 
11 *178:18 *178:46 42.0291 
12 *178:46 *16008:A 20 
*END

*D_NET *179 0.0149692
*CONN
*I *16018:A I *D sg13cmos5l_xnor2_1
*I *16023:A1 I *D sg13cmos5l_a21oi_1
*I *16028:A1 I *D sg13cmos5l_a22oi_1
*I *16116:X O *D sg13cmos5l_buf_1
*CAP
1 *16018:A 0.000270638
2 *16023:A1 5.57901e-05
3 *16028:A1 0
4 *16116:X 0.000145265
5 *179:29 0.00136458
6 *179:16 0.00127551
7 *179:12 0.00332776
8 *179:10 0.0030904
9 *179:8 0.000145265
10 *179:12 *180:26 0
11 *179:12 *200:20 0
12 *179:16 *180:40 7.49823e-05
13 *179:29 *180:40 5.42181e-05
14 *179:29 *184:6 0
15 *16023:B1 *16018:A 0
16 *88:10 *179:29 0
17 *161:8 *179:16 0
18 *161:8 *179:29 0
19 *161:25 *16023:A1 0.000112018
20 *161:25 *179:29 0.000258701
21 *162:8 *179:16 0
22 *162:8 *179:29 0
23 *165:10 *179:12 0.00270442
24 *175:14 *179:12 0
25 *175:20 *179:12 0.00208969
*RES
1 *16116:X *179:8 41.5862 
2 *179:8 *179:10 20 
3 *179:10 *179:12 32.548 
4 *179:12 *179:16 22.8222 
5 *179:16 *16028:A1 40 
6 *179:16 *179:29 31.7761 
7 *179:29 *16023:A1 20.7519 
8 *179:29 *16018:A 22.5853 
*END

*D_NET *180 0.012897
*CONN
*I *16021:A I *D sg13cmos5l_nor2_1
*I *16028:B1 I *D sg13cmos5l_a22oi_1
*I *16022:A I *D sg13cmos5l_xor2_1
*I *16117:X O *D sg13cmos5l_buf_1
*CAP
1 *16021:A 0
2 *16028:B1 0
3 *16022:A 0
4 *16117:X 0.00111152
5 *180:46 4.37626e-05
6 *180:40 0.000410708
7 *180:32 0.000571475
8 *180:30 0.000231851
9 *180:26 0.00227826
10 *180:20 0.0026027
11 *180:14 0.00146328
12 *180:26 *198:20 0
13 *180:26 *200:20 0
14 *180:40 *185:14 0
15 *16029:A *180:30 0
16 *16113:A *180:14 0
17 *16115:A *180:14 0.000112335
18 *16116:A *180:14 0.000103476
19 *88:10 *180:30 1.49483e-05
20 *88:10 *180:32 0.000220238
21 *162:8 *180:26 0
22 *162:12 *180:32 0
23 *164:10 *180:14 0.000219129
24 *164:16 *180:26 0.00173187
25 *164:28 *180:26 0
26 *166:8 *180:26 0
27 *166:12 *180:26 0
28 *167:12 *180:14 0.000988371
29 *167:16 *180:20 0
30 *168:16 *180:20 0
31 *173:8 *180:20 0
32 *174:8 *180:20 0
33 *176:10 *180:14 0
34 *176:14 *180:14 0.000663907
35 *177:16 *180:26 0
36 *178:16 *180:46 0
37 *179:12 *180:26 0
38 *179:16 *180:40 7.49823e-05
39 *179:29 *180:40 5.42181e-05
*RES
1 *16117:X *180:14 32.7514 
2 *180:14 *180:20 43.5638 
3 *180:20 *180:26 43.381 
4 *180:26 *180:30 20.3193 
5 *180:30 *180:32 2.0497 
6 *180:32 *180:40 42.6471 
7 *180:40 *180:46 40.3502 
8 *180:46 *16022:A 20 
9 *180:32 *16028:B1 20 
10 *180:30 *16021:A 20 
*END

*D_NET *181 0.0208094
*CONN
*I *16124:A I *D sg13cmos5l_buf_1
*I *15976:X O *D sg13cmos5l_xor2_1
*CAP
1 *16124:A 0.00240649
2 *15976:X 0.000889756
3 *181:20 0.00571466
4 *181:16 0.00377585
5 *181:12 0.00135744
6 *16124:A *16131:A 0
7 *16124:A *189:14 0
8 *16124:A *190:14 0
9 *181:12 *186:14 0
10 *181:12 *193:8 0
11 *181:20 *190:14 0.00563222
12 uio_out[0] *181:20 0
13 uio_out[10] *181:20 0
14 uio_out[12] *181:20 0
15 uio_out[13] *181:20 0
16 uio_out[1] *181:20 0
17 uio_out[3] *181:20 0
18 uio_out[4] *181:20 0
19 uio_out[5] *181:20 0
20 uio_out[6] *181:20 0
21 uio_out[7] *181:20 0
22 uio_out[8] *181:20 0
23 uio_out[9] *181:20 0
24 uo_out[11] *16124:A 8.02267e-05
25 uo_out[12] *16124:A 0.000103441
26 uo_out[12] *181:20 0
27 uo_out[13] *181:20 0
28 uo_out[14] *181:20 0
29 uo_out[15] *181:20 0
30 uo_out[2] *16124:A 8.02269e-05
31 uo_out[3] *16124:A 0.000209681
32 uo_out[4] *16124:A 0.000177323
33 uo_out[5] *16124:A 0.000144833
34 uo_out[6] *16124:A 0.000111716
35 uo_out[7] *16124:A 7.92329e-05
36 *15976:B *181:12 4.63397e-05
*RES
1 *15976:X *181:12 49.6717 
2 *181:12 *181:16 24.7998 
3 *181:16 *181:20 38.1821 
4 *181:20 *16124:A 46.3474 
*END

*D_NET *182 0.0200332
*CONN
*I *16125:A I *D sg13cmos5l_buf_1
*I *16032:Y O *D sg13cmos5l_xnor2_1
*CAP
1 *16125:A 0
2 *16032:Y 0
3 *182:18 0.000695043
4 *182:12 0.00555955
5 *182:10 0.0048645
6 *182:6 0.00445708
7 *182:4 0.00445708
8 *182:6 *187:14 0
9 *182:6 *187:20 0
10 *182:6 *197:8 0
11 *182:6 *197:12 0
12 *182:18 *183:10 0
13 *182:18 *197:20 0
14 *16024:A *182:6 0
*RES
1 *16032:Y *182:4 20 
2 *182:4 *182:6 43.363 
3 *182:6 *182:10 40 
4 *182:10 *182:12 65.4256 
5 *182:12 *182:18 48.2606 
6 *182:18 *16125:A 20 
*END

*D_NET *183 0.0224713
*CONN
*I *16126:A I *D sg13cmos5l_buf_1
*I *16037:Y O *D sg13cmos5l_xnor2_1
*CAP
1 *16126:A 0
2 *16037:Y 0
3 *183:10 0.0014333
4 *183:6 0.0112356
5 *183:4 0.00980233
6 *183:6 *190:6 0
7 *183:6 *196:10 0
8 *183:6 *196:12 0
9 *15985:A *183:6 0
10 *16019:B_N *183:6 0
11 *16020:A *183:6 0
12 *16030:A *183:6 0
13 *16031:B1 *183:6 0
14 *89:27 *183:6 0
15 *90:10 *183:6 0
16 *91:10 *183:6 0
17 *130:18 *183:6 0
18 *148:40 *183:6 0
19 *149:14 *183:6 0
20 *156:27 *183:6 0
21 *173:24 *183:6 0
22 *182:18 *183:10 0
*RES
1 *16037:Y *183:4 20 
2 *183:4 *183:6 108.381 
3 *183:6 *183:10 37.407 
4 *183:10 *16126:A 40 
*END

*D_NET *184 0.0233321
*CONN
*I *16127:A I *D sg13cmos5l_buf_1
*I *16045:Y O *D sg13cmos5l_xnor2_1
*CAP
1 *16127:A 0
2 *16045:Y 0
3 *184:10 0.000950165
4 *184:6 0.0110675
5 *184:4 0.0101173
6 *184:6 *192:6 0
7 *184:6 *197:8 0
8 *184:6 *197:12 0
9 *184:6 *197:14 0
10 *184:10 *185:20 0
11 *15981:A2 *184:6 0
12 *15993:A *184:6 0
13 *15998:A2 *184:6 8.16736e-05
14 *15998:B1 *184:6 0
15 *16024:A *184:6 0
16 *16024:B *184:6 0
17 *16027:A *184:6 0
18 *16032:B *184:6 0
19 *100:14 *184:6 0
20 *114:23 *184:6 0
21 *118:8 *184:6 0.000145173
22 *126:16 *184:6 0
23 *157:25 *184:6 0.000890236
24 *161:25 *184:6 0
25 *174:39 *184:6 8.00842e-05
26 *179:29 *184:6 0
*RES
1 *16045:Y *184:4 20 
2 *184:4 *184:6 103.308 
3 *184:6 *184:10 31.227 
4 *184:10 *16127:A 40 
*END

*D_NET *185 0.0184078
*CONN
*I *16128:A I *D sg13cmos5l_buf_1
*I *16049:Y O *D sg13cmos5l_xnor2_1
*CAP
1 *16128:A 0
2 *16049:Y 0.000330337
3 *185:20 0.000256256
4 *185:14 0.00887355
5 *185:12 0.00861729
6 *185:10 0.000330337
7 *185:10 *186:12 0
8 *185:10 *188:26 0
9 *185:10 *198:20 0
10 *185:20 *186:20 0
11 *180:40 *185:14 0
12 *184:10 *185:20 0
*RES
1 *16049:Y *185:10 43.3887 
2 *185:10 *185:12 20 
3 *185:12 *185:14 112.579 
4 *185:14 *185:20 43.0694 
5 *185:20 *16128:A 20 
*END

*D_NET *186 0.0328112
*CONN
*I *16129:A I *D sg13cmos5l_buf_1
*I *16056:Y O *D sg13cmos5l_xnor2_1
*CAP
1 *16129:A 0
2 *16056:Y 0.00205612
3 *186:20 0.000622464
4 *186:14 0.0103357
5 *186:12 0.0117693
6 *186:12 *187:14 0
7 *186:12 *198:20 0
8 *186:12 *199:12 0.00190765
9 *186:14 *187:14 0
10 *186:14 *187:20 0
11 *186:14 *187:22 0
12 *186:14 *197:14 0
13 *186:20 *187:28 0
14 *15976:A *186:14 0.00027466
15 *15979:A *186:14 0.000209856
16 *15997:A_N *186:14 4.78192e-05
17 *15999:A *186:14 0
18 *15999:B *186:14 0
19 *16021:B *186:14 0
20 *16022:B *186:14 0
21 *16025:B *186:12 0
22 *16025:B *186:14 0
23 *16028:A2 *186:14 0
24 *16034:A *186:12 0
25 *16049:B *186:12 0
26 *86:10 *186:14 0
27 *89:8 *186:14 0.000728594
28 *105:6 *186:12 0
29 *129:8 *186:14 0.00079308
30 *152:10 *186:14 0
31 *162:12 *186:14 0
32 *163:24 *186:14 0.00286734
33 *166:12 *186:14 0
34 *171:20 *186:14 0.00113372
35 *171:22 *186:14 6.49135e-05
36 *177:16 *186:12 0
37 *181:12 *186:14 0
38 *185:10 *186:12 0
39 *185:20 *186:20 0
*RES
1 *16056:Y *186:12 42.66 
2 *186:12 *186:14 103.278 
3 *186:14 *186:20 46.7078 
4 *186:20 *16129:A 20 
*END

*D_NET *187 0.0294139
*CONN
*I *16130:A I *D sg13cmos5l_buf_1
*I *16059:Y O *D sg13cmos5l_xnor2_1
*CAP
1 *16130:A 0
2 *16059:Y 0.000617112
3 *187:28 0.000687985
4 *187:22 0.00568394
5 *187:20 0.00698258
6 *187:14 0.00765978
7 *187:12 0.00567315
8 *187:10 0.000617112
9 *187:10 *16054:B 0
10 *187:10 *16055:B 0
11 *187:14 *199:12 0
12 *187:20 *15978:B 7.00607e-05
13 *187:20 *197:12 0
14 *187:20 *201:16 0
15 *187:22 *15979:B 0
16 *187:22 *189:8 0
17 *187:22 *197:12 0
18 *187:22 *197:14 0
19 *15979:A *187:20 1.54008e-05
20 *15979:A *187:22 0
21 *16032:B *187:14 0
22 *16056:B *187:10 0
23 *16057:B1 *187:10 0
24 *16057:A1 *187:14 0
25 *16059:A *187:10 0
26 *108:14 *187:14 0
27 *117:10 *187:22 0
28 *169:18 *187:10 0
29 *169:20 *187:10 0
30 *169:32 *187:10 0.000177399
31 *171:20 *187:20 0.00114918
32 *171:22 *187:20 8.02269e-05
33 *182:6 *187:14 0
34 *182:6 *187:20 0
35 *186:12 *187:14 0
36 *186:14 *187:14 0
37 *186:14 *187:20 0
38 *186:14 *187:22 0
39 *186:20 *187:28 0
*RES
1 *16059:Y *187:10 45.6753 
2 *187:10 *187:12 20 
3 *187:12 *187:14 54.4561 
4 *187:14 *187:20 19.5597 
5 *187:20 *187:22 52.2313 
6 *187:22 *187:28 47.7662 
7 *187:28 *16130:A 20 
*END

*D_NET *188 0.0131908
*CONN
*I *16046:A2 I *D sg13cmos5l_a21oi_1
*I *16051:B I *D sg13cmos5l_and3_1
*I *16043:B I *D sg13cmos5l_xnor2_1
*I *16118:X O *D sg13cmos5l_buf_1
*CAP
1 *16046:A2 0
2 *16051:B 0.000701668
3 *16043:B 4.64093e-05
4 *16118:X 0.000228546
5 *188:26 0.00140083
6 *188:20 0.000811837
7 *188:14 0.00118333
8 *188:10 0.00125279
9 *16043:A *16043:B 4.77866e-05
10 *16043:A *16051:B 0
11 *16046:A1 *188:26 4.77425e-05
12 *16051:A *16051:B 0.00132935
13 *16051:C *16051:B 0
14 *16052:B1 *16043:B 1.54449e-05
15 *16052:B1 *16051:B 0
16 *16109:A *188:14 0
17 *101:23 *188:26 0.000288184
18 *163:14 *188:10 0.000209856
19 *164:16 *188:26 8.01938e-05
20 *167:16 *188:20 0.000499383
21 *167:16 *188:26 7.51285e-05
22 *167:27 *16051:B 7.52158e-05
23 *167:27 *188:26 0.00207918
24 *172:10 *188:10 0
25 *172:10 *188:14 0.0017006
26 *175:14 *188:14 0.00111732
27 *175:20 *188:14 0
28 *185:10 *188:26 0
*RES
1 *16118:X *188:10 42.2454 
2 *188:10 *188:14 31.7832 
3 *188:14 *188:20 42.3278 
4 *188:20 *188:26 30.5266 
5 *188:26 *16043:B 40.4388 
6 *188:26 *16051:B 48.6726 
7 *188:20 *16046:A2 20 
*END

*D_NET *189 0.0232916
*CONN
*I *16131:A I *D sg13cmos5l_buf_1
*I *15980:Y O *D sg13cmos5l_xnor2_1
*CAP
1 *16131:A 6.68694e-05
2 *15980:Y 0.000619459
3 *189:14 0.00554467
4 *189:12 0.00623569
5 *189:8 0.00137735
6 *16131:A *16132:A 0
7 *189:8 *197:12 0
8 *189:12 *190:10 0
9 *189:14 *190:14 0.00944752
10 *16124:A *16131:A 0
11 *16124:A *189:14 0
12 *187:22 *189:8 0
*RES
1 *15980:Y *189:8 46.592 
2 *189:8 *189:12 28.0134 
3 *189:12 *189:14 65.2093 
4 *189:14 *16131:A 20.8446 
*END

*D_NET *190 0.0311243
*CONN
*I *16132:A I *D sg13cmos5l_buf_1
*I *15984:Y O *D sg13cmos5l_xnor2_1
*CAP
1 *16132:A 4.72978e-05
2 *15984:Y 0.0008891
3 *190:14 0.00545455
4 *190:12 0.00540725
5 *190:10 0.00167861
6 *190:6 0.00256771
7 *190:6 *191:6 0
8 uio_oe[0] *190:14 0
9 uio_out[14] *190:14 0
10 uio_out[15] *190:14 0
11 *16124:A *190:14 0
12 *16131:A *16132:A 0
13 *181:20 *190:14 0.00563222
14 *183:6 *190:6 0
15 *189:12 *190:10 0
16 *189:14 *190:14 0.00944752
*RES
1 *15984:Y *190:6 30.0528 
2 *190:6 *190:10 39.3846 
3 *190:10 *190:12 20 
4 *190:12 *190:14 65.4256 
5 *190:14 *16132:A 20.5974 
*END

*D_NET *191 0.0160241
*CONN
*I *16133:A I *D sg13cmos5l_buf_1
*I *15988:Y O *D sg13cmos5l_xnor2_1
*CAP
1 *16133:A 0
2 *15988:Y 0
3 *191:10 0.00172747
4 *191:6 0.00801205
5 *191:4 0.00628458
6 *191:10 *192:10 0
7 *190:6 *191:6 0
*RES
1 *15988:Y *191:4 20 
2 *191:4 *191:6 71.482 
3 *191:6 *191:10 41.8566 
4 *191:10 *16133:A 40 
*END

*D_NET *192 0.017203
*CONN
*I *16134:A I *D sg13cmos5l_buf_1
*I *15994:Y O *D sg13cmos5l_xnor2_1
*CAP
1 *16134:A 0
2 *15994:Y 0
3 *192:10 0.00101292
4 *192:6 0.00860151
5 *192:4 0.00758859
6 *192:10 *193:14 0
7 *126:16 *192:6 0
8 *184:6 *192:6 0
9 *191:10 *192:10 0
*RES
1 *15994:Y *192:4 20 
2 *192:4 *192:6 85.3252 
3 *192:6 *192:10 32.463 
4 *192:10 *16134:A 40 
*END

*D_NET *193 0.0167726
*CONN
*I *16135:A I *D sg13cmos5l_buf_1
*I *15999:Y O *D sg13cmos5l_xnor2_1
*CAP
1 *16135:A 0
2 *15999:Y 5.18414e-05
3 *193:14 0.000325782
4 *193:8 0.00833447
5 *193:6 0.00806053
6 *193:14 *194:10 0
7 *15976:B *193:8 0
8 *181:12 *193:8 0
9 *192:10 *193:14 0
*RES
1 *15999:Y *193:6 20.5974 
2 *193:6 *193:8 89.0023 
3 *193:8 *193:14 44.0582 
4 *193:14 *16135:A 20 
*END

*D_NET *194 0.0189831
*CONN
*I *16136:A I *D sg13cmos5l_buf_1
*I *16007:Y O *D sg13cmos5l_xnor2_1
*CAP
1 *16136:A 0
2 *16007:Y 0
3 *194:10 0.00217511
4 *194:6 0.00949157
5 *194:4 0.00731646
6 *194:10 *195:22 0
7 *126:36 *194:6 0
8 *193:14 *194:10 0
*RES
1 *16007:Y *194:4 20 
2 *194:4 *194:6 83.3785 
3 *194:6 *194:10 47.5422 
4 *194:10 *16136:A 40 
*END

*D_NET *195 0.0199305
*CONN
*I *16137:A I *D sg13cmos5l_buf_1
*I *16012:X O *D sg13cmos5l_xor2_1
*CAP
1 *16137:A 0
2 *16012:X 0.000636505
3 *195:22 0.00247975
4 *195:20 0.00247975
5 *195:18 0.00318905
6 *195:16 0.00682505
7 *195:8 0.00427251
8 *195:22 *196:16 0
9 *16012:B *195:8 4.79124e-05
10 *194:10 *195:22 0
*RES
1 *16012:X *195:8 27.313 
2 *195:8 *195:16 41.6944 
3 *195:16 *195:18 36.3796 
4 *195:18 *195:20 20 
5 *195:20 *195:22 30.6862 
6 *195:22 *16137:A 40 
*END

*D_NET *196 0.0195579
*CONN
*I *16138:A I *D sg13cmos5l_buf_1
*I *16020:Y O *D sg13cmos5l_xnor2_1
*CAP
1 *16138:A 0
2 *16020:Y 0.000848401
3 *196:16 0.00124518
4 *196:12 0.00890666
5 *196:10 0.00850988
6 *196:16 *197:20 0
7 *15994:B *196:12 0
8 *16004:A_N *196:10 4.77425e-05
9 *126:16 *196:12 0
10 *127:14 *196:10 0
11 *127:14 *196:12 0
12 *183:6 *196:10 0
13 *183:6 *196:12 0
14 *195:22 *196:16 0
*RES
1 *16020:Y *196:10 29.3009 
2 *196:10 *196:12 79.4068 
3 *196:12 *196:16 35.4294 
4 *196:16 *16138:A 40 
*END

*D_NET *197 0.0195719
*CONN
*I *16139:A I *D sg13cmos5l_buf_1
*I *16024:Y O *D sg13cmos5l_xnor2_1
*CAP
1 *16139:A 0
2 *16024:Y 0.00219693
3 *197:20 0.000748809
4 *197:14 0.00493613
5 *197:12 0.00684023
6 *197:8 0.00484983
7 *197:12 *201:16 0
8 *15981:A2 *197:12 0
9 *15998:A1 *197:8 0
10 *15998:B1 *197:8 0
11 *114:23 *197:12 0
12 *115:10 *197:12 0
13 *117:10 *197:12 0
14 *171:39 *197:12 0
15 *174:24 *197:8 0
16 *182:6 *197:8 0
17 *182:6 *197:12 0
18 *182:18 *197:20 0
19 *184:6 *197:8 0
20 *184:6 *197:12 0
21 *184:6 *197:14 0
22 *186:14 *197:14 0
23 *187:20 *197:12 0
24 *187:22 *197:12 0
25 *187:22 *197:14 0
26 *189:8 *197:12 0
27 *196:16 *197:20 0
*RES
1 *16024:Y *197:8 43.9681 
2 *197:8 *197:12 21.0868 
3 *197:12 *197:14 47.3182 
4 *197:14 *197:20 49.0022 
5 *197:20 *16139:A 20 
*END

*D_NET *198 0.00723257
*CONN
*I *16047:B I *D sg13cmos5l_or2_1
*I *16052:A2 I *D sg13cmos5l_a221oi_1
*I *16048:B I *D sg13cmos5l_xor2_1
*I *16119:X O *D sg13cmos5l_buf_1
*CAP
1 *16047:B 0.00012154
2 *16052:A2 0.000170043
3 *16048:B 0
4 *16119:X 0.000309867
5 *198:31 0.00116039
6 *198:20 0.0025854
7 *198:8 0.00202646
8 *198:8 *199:8 0
9 *16033:A *198:20 0.000176708
10 *16034:A *198:20 0
11 *16046:A1 *198:20 4.77866e-05
12 *16047:A *16047:B 0
13 *16049:A *198:20 0.000111502
14 *16049:B *198:20 6.18224e-06
15 *16052:A1 *16052:A2 0.000274583
16 *105:6 *198:20 0
17 *106:10 *16047:B 0
18 *106:10 *16052:A2 0
19 *106:10 *198:31 0
20 *164:16 *198:20 0
21 *164:16 *198:31 0
22 *164:20 *198:8 0
23 *164:28 *198:20 0.00024211
24 *168:25 *198:31 0
25 *177:16 *198:20 0
26 *180:26 *198:20 0
27 *185:10 *198:20 0
28 *186:12 *198:20 0
*RES
1 *16119:X *198:8 43.3166 
2 *198:8 *198:20 37.1701 
3 *198:20 *16048:B 20 
4 *198:20 *198:31 28.0546 
5 *198:31 *16052:A2 41.9493 
6 *198:31 *16047:B 41.0918 
*END

*D_NET *199 0.00955704
*CONN
*I *16054:B I *D sg13cmos5l_nor2_1
*I *16055:B I *D sg13cmos5l_xor2_1
*I *16053:B I *D sg13cmos5l_nand2_1
*I *16120:X O *D sg13cmos5l_buf_1
*CAP
1 *16054:B 0.000130874
2 *16055:B 7.74505e-05
3 *16053:B 0
4 *16120:X 0.000674213
5 *199:23 0.000366035
6 *199:12 0.00225135
7 *199:8 0.00276785
8 *199:8 *200:8 0
9 *16025:A *199:8 0
10 *16056:B *199:12 0.0003313
11 *16056:B *199:23 0.000191401
12 *16057:B1 *199:23 0.000177109
13 *92:12 *199:8 0
14 *93:12 *199:8 0
15 *154:10 *199:8 0
16 *164:20 *199:8 0
17 *165:14 *199:8 0
18 *169:50 *16054:B 0.00044777
19 *169:50 *16055:B 0.000234024
20 *177:22 *199:8 0
21 *186:12 *199:12 0.00190765
22 *187:10 *16054:B 0
23 *187:10 *16055:B 0
24 *187:14 *199:12 0
25 *198:8 *199:8 0
*RES
1 *16120:X *199:8 46.7774 
2 *199:8 *199:12 43.0308 
3 *199:12 *16053:B 20 
4 *199:12 *199:23 21.9364 
5 *199:23 *16055:B 41.0918 
6 *199:23 *16054:B 42.0806 
*END

*D_NET *200 0.00699246
*CONN
*I *16058:B I *D sg13cmos5l_xnor2_1
*I *16121:X O *D sg13cmos5l_buf_1
*CAP
1 *16058:B 0
2 *16121:X 0.000206486
3 *200:20 0.00313273
4 *200:8 0.00333922
5 *16056:B *200:20 0
6 *16058:A *200:20 1.49483e-05
7 *164:16 *200:20 0
8 *165:10 *200:20 0
9 *169:18 *200:20 0.000299078
10 *169:20 *200:20 0
11 *169:32 *200:20 0
12 *179:12 *200:20 0
13 *180:26 *200:20 0
14 *199:8 *200:8 0
*RES
1 *16121:X *200:8 42.0806 
2 *200:8 *200:20 49.8391 
3 *200:20 *16058:B 20 
*END

*D_NET *201 0.0105818
*CONN
*I *15977:B I *D sg13cmos5l_nand2_1
*I *15979:B I *D sg13cmos5l_xor2_1
*I *15978:B I *D sg13cmos5l_nor2_1
*I *16122:X O *D sg13cmos5l_buf_1
*CAP
1 *15977:B 0
2 *15979:B 0.00016147
3 *15978:B 7.38767e-05
4 *16122:X 0.00173426
5 *201:18 0.000259514
6 *201:16 0.000809012
7 *201:8 0.00251911
8 *201:8 *202:8 0
9 *115:10 *15979:B 0.000242022
10 *115:10 *201:18 1.54008e-05
11 *116:10 *201:16 0
12 *155:6 *201:8 0.00276955
13 *156:8 *201:8 0.00192751
14 *163:20 *201:8 0
15 *171:39 *201:16 0
16 *171:39 *201:18 0
17 *187:20 *15978:B 7.00607e-05
18 *187:20 *201:16 0
19 *187:22 *15979:B 0
20 *197:12 *201:16 0
*RES
1 *16122:X *201:8 40.7854 
2 *201:8 *201:16 48.7653 
3 *201:16 *201:18 0.3193 
4 *201:18 *15978:B 20.9167 
5 *201:18 *15979:B 21.6171 
6 *201:16 *15977:B 20 
*END

*D_NET *202 0.0164639
*CONN
*I *15990:B I *D sg13cmos5l_and3_1
*I *15982:B I *D sg13cmos5l_xnor2_1
*I *15987:A2 I *D sg13cmos5l_a21oi_1
*I *16123:X O *D sg13cmos5l_buf_1
*CAP
1 *15990:B 0
2 *15982:B 0
3 *15987:A2 0
4 *16123:X 0.00115852
5 *202:53 0.00017287
6 *202:40 4.86494e-05
7 *202:34 0.000478549
8 *202:32 0.000992247
9 *202:16 0.00110238
10 *202:12 0.00177806
11 *202:8 0.00256942
12 uio_oe[14] *202:8 0.00014514
13 uio_oe[15] *202:8 8.02267e-05
14 *15982:A *202:53 8.00842e-05
15 *15984:B *202:53 0.000342965
16 *15987:A1 *202:53 0
17 *16092:A *202:8 0.00030715
18 *16122:A *202:8 0.000209856
19 *16123:A *202:8 0.0001448
20 *118:21 *202:53 0
21 *119:8 *202:53 4.77425e-05
22 *119:23 *202:53 7.51285e-05
23 *121:10 *202:16 0
24 *126:16 *202:12 0
25 *155:6 *202:8 0.00121456
26 *156:8 *202:8 0
27 *156:27 *202:32 0
28 *172:22 *202:12 0.00436881
29 *172:22 *202:16 0
30 *172:22 *202:32 0
31 *172:24 *202:32 0.00114674
32 *173:18 *202:8 0
33 *201:8 *202:8 0
*RES
1 *16123:X *202:8 32.3497 
2 *202:8 *202:12 41.3622 
3 *202:12 *202:16 23.3475 
4 *202:16 *202:32 48.8941 
5 *202:32 *202:34 3.3475 
6 *202:34 *202:40 40.5356 
7 *202:40 *15987:A2 20 
8 *202:34 *202:53 42.369 
9 *202:53 *15982:B 20 
10 *202:16 *15990:B 20 
*END
